%%MatrixMarket matrix coordinate real general
%
136 136 2422
1 5 4.9999997767415455E-1
1 6 9.999999734005577E-1
1 15 9.999999682977391E-1
1 18 4.999999764171396E-1
1 26 9.999999701323606E-1
1 44 9.999999782199767E-1
1 47 4.999998337587609E-1
1 55 4.9999988715000204E-1
1 56 4.9999997502008414E-1
1 71 9.999999747063475E-1
1 89 9.9999998837694E-1
1 93 4.9999998167675624E-1
1 95 4.9999995155267907E-1
1 99 4.9999983750219523E-1
1 100 9.999999688148312E-1
1 109 9.999999340076059E-1
1 123 4.999999718361344E-1
1 126 9.999999883820743E-1
2 8 4.999999602948859E-1
2 12 9.999999783556632E-1
2 21 4.9999998182327854E-1
2 32 4.999999837187285E-1
2 33 9.99999996852886E-1
2 39 9.999999834161446E-1
2 56 4.9999997919817574E-1
2 58 9.999999966972399E-1
2 60 9.999999857648585E-1
2 61 9.999999720410764E-1
2 64 9.999999955470349E-1
2 79 4.9999992979274005E-1
2 83 9.999999930422705E-1
2 86 4.9999998261058193E-1
2 88 4.9999998933572354E-1
2 94 4.99999978044121E-1
2 101 4.999999701375116E-1
2 115 9.999999989948495E-1
2 119 4.9999996459158874E-1
2 123 4.9999998896798237E-1
2 127 9.99999993791228E-1
2 129 9.999999918856499E-1
2 135 4.9999999061685424E-1
2 136 4.9999992652521574E-1
3 14 9.999999831340557E-1
3 27 4.9999987991494654E-1
3 32 4.999998775465255E-1
3 38 9.999998329770232E-1
3 76 9.999998015759436E-1
3 79 9.999999004192828E-1
3 81 9.999999440486874E-1
3 86 4.999998760898554E-1
3 94 4.9999988724868644E-1
3 104 9.999998623605677E-1
3 111 9.999999870142E-1
3 112 4.9999992152754574E-1
3 116 9.999999749896786E-1
3 136 9.999999025075669E-1
4 9 9.999999847644299E-1
4 11 9.99999956070347E-1
4 16 4.999999766140159E-1
4 20 4.999999661720133E-1
4 53 4.999999702947131E-1
4 59 4.9999995681638965E-1
4 65 9.999999399807018E-1
4 68 9.999999761306582E-1
4 77 4.999999587932595E-1
4 78 4.999999784579002E-1
4 80 4.999999757373048E-1
4 87 9.99999957657208E-1
4 98 4.999999693867515E-1
4 132 4.9999997180469985E-1
5 1 4.9999997767415455E-1
5 6 4.999999814987951E-1
5 18 9.99999999418971E-1
5 26 9.999999976970625E-1
5 33 9.999999719684451E-1
5 39 9.999999804309393E-1
5 44 9.999999906628364E-1
5 56 9.99999968573561E-1
5 60 4.999999826065476E-1
5 71 4.999999594964374E-1
5 74 9.999999883865355E-1
5 83 4.9999998414609265E-1
5 88 9.9999998542264E-1
5 89 9.999999891802775E-1
5 93 9.999999993129313E-1
5 100 4.999999272151704E-1
5 118 4.99999981046021E-1
5 123 9.99999997029918E-1
5 126 9.999999891742759E-1
5 127 4.999999817319669E-1
5 129 9.999999885013628E-1
5 135 9.999999908495281E-1
6 1 9.999999734005577E-1
6 5 4.999999814987951E-1
6 8 4.99999952010597E-1
6 12 9.999999695539598E-1
6 15 9.999999714853467E-1
6 18 4.999999772627942E-1
6 26 4.99999981955543E-1
6 44 4.999999783507123E-1
6 47 4.999997626517632E-1
6 55 4.999999421402883E-1
6 56 9.999999947058792E-1
6 61 9.999999553195486E-1
6 89 9.999999771134165E-1
6 90 4.9999981410371785E-1
6 93 9.99999972268914E-1
6 95 4.999999606199534E-1
6 100 4.999999488299253E-1
6 101 9.999999765504256E-1
6 119 4.9999997137977387E-1
6 123 4.999999844713398E-1
6 126 9.999999771041149E-1
7 13 9.99999857293227E-1
7 25 9.999999724337346E-1
7 28 4.9999997302995564E-1
7 34 4.999999201641905E-1
7 37 9.999999944832826E-1
7 41 9.999999906441973E-1
7 45 9.999999990110273E-1
7 69 9.99999997241432E-1
7 72 4.999999737020578E-1
7 85 9.999999698447374E-1
7 106 9.99999992631163E-1
7 114 9.999999774398479E-1
7 118 4.999999655503111E-1
7 125 9.999999919255106E-1
7 128 9.999999581924444E-1
8 2 4.999999602948859E-1
8 6 4.99999952010597E-1
8 12 9.999999691137936E-1
8 32 4.9999994847162194E-1
8 38 4.999998952266631E-1
8 55 9.999999385784193E-1
8 56 4.999999673209668E-1
8 58 4.9999994391227787E-1
8 61 9.999999828354553E-1
8 76 4.999999090718713E-1
8 81 4.9999990512886766E-1
8 86 9.999999811411759E-1
8 90 4.9999985251959667E-1
8 101 9.999999749492628E-1
8 112 9.999999688271317E-1
8 115 4.99999961425922E-1
8 119 9.999999944683792E-1
8 129 4.99999944929556E-1
9 4 9.999999847644299E-1
9 11 4.999999446232981E-1
9 16 9.999999884930051E-1
9 20 9.999999739750518E-1
9 53 4.999999767394753E-1
9 65 4.999999358154595E-1
9 67 4.999999776908557E-1
9 68 9.999999955793353E-1
9 77 9.999999724646049E-1
9 78 9.999999834780268E-1
9 80 9.99999977230386E-1
9 87 9.999999755141711E-1
9 98 9.999999846219255E-1
9 108 4.9999998377911475E-1
9 132 9.999999836610586E-1
9 134 9.999999583626797E-1
10 16 4.9999998194971995E-1
10 17 4.9999995938347486E-1
10 19 9.999999626895935E-1
10 22 9.999999893664882E-1
10 27 4.999999693499809E-1
10 30 9.999999763542129E-1
10 46 9.999999993914259E-1
10 50 4.999999633827355E-1
10 63 9.99999996422342E-1
10 66 9.999999786580384E-1
10 67 9.999999977359015E-1
10 77 9.999999900261002E-1
10 98 9.999999829152619E-1
10 108 9.999999938708262E-1
10 124 4.99999968631204E-1
10 132 4.999999843998328E-1
10 133 9.999999989191886E-1
10 134 9.999999965275838E-1
11 4 9.99999956070347E-1
11 9 4.999999446232981E-1
11 48 9.999998591883152E-1
11 52 4.999998836050372E-1
11 53 4.999999279948417E-1
11 54 9.999998558638739E-1
11 59 4.9999992013944256E-1
11 62 4.999998216961482E-1
11 65 9.99999982197415E-1
11 68 4.999999377757362E-1
11 70 4.999999138604718E-1
11 78 4.999999230461711E-1
11 80 4.999999214060922E-1
11 87 4.9999993136699433E-1
11 102 4.9999992552825356E-1
11 103 4.999996494658077E-1
11 107 4.9999987845292093E-1
11 110 4.999999264958159E-1
11 122 4.999998848497924E-1
11 130 4.999998460371365E-1
11 131 4.9999984944723114E-1
12 2 9.999999783556632E-1
12 6 9.999999695539598E-1
12 8 9.999999691137936E-1
12 15 4.999999460057631E-1
12 33 4.999999820669589E-1
12 55 4.999999448320723E-1
12 56 9.99999989319263E-1
12 58 4.999999791467008E-1
12 61 9.999999978370672E-1
12 64 4.999999771389692E-1
12 86 9.999999733824539E-1
12 95 4.9999991630025903E-1
12 101 9.999999905003183E-1
12 112 4.999999418085858E-1
12 115 9.999999739076985E-1
12 119 9.999999824441033E-1
12 123 4.9999998454168315E-1
12 129 4.9999998644597604E-1
13 7 9.99999857293227E-1
13 25 9.999999544054602E-1
13 34 9.999999995097713E-1
13 37 4.999999300627475E-1
13 41 4.999999181668416E-1
13 45 9.999998798214421E-1
13 47 4.9999979625159846E-1
13 69 4.999999251721943E-1
13 71 4.9999993325840686E-1
13 85 4.999999125606688E-1
13 99 9.99999886576782E-1
13 106 4.999999448600408E-1
13 109 9.999999263115191E-1
13 114 4.99999947732174E-1
13 125 4.999999304570921E-1
14 3 9.999999831340557E-1
14 27 4.999999265231612E-1
14 38 9.999999021149463E-1
14 76 9.999998716772862E-1
14 79 4.9999991082276785E-1
14 81 9.999998790150011E-1
14 96 9.999998391071837E-1
14 104 9.99999932462229E-1
14 105 4.9999991359047813E-1
14 111 9.999999436180698E-1
14 112 4.999999225982796E-1
14 116 9.999999175115251E-1
14 124 4.999999171034721E-1
14 136 4.9999991143220773E-1
15 1 9.999999682977391E-1
15 6 9.999999714853467E-1
15 12 4.999999460057631E-1
15 26 4.999999502905631E-1
15 44 4.999999522496237E-1
15 47 4.99999855057994E-1
15 55 9.999998876844071E-1
15 56 4.9999997190798506E-1
15 71 4.9999994944029524E-1
15 89 4.999999678015134E-1
15 90 4.9999985799928276E-1
15 93 4.999999517014529E-1
15 95 9.999999818752137E-1
15 99 4.999997971835505E-1
15 100 9.99999946380151E-1
15 101 9.999999282608995E-1
15 126 4.999999678008069E-1
16 4 4.999999766140159E-1
16 9 9.999999884930051E-1
16 10 4.9999998194971995E-1
16 20 9.99999996771857E-1
16 22 9.999999840052359E-1
16 24 4.9999997607877134E-1
16 46 9.999999708370079E-1
16 53 4.9999998533541434E-1
16 65 4.99999894368963E-1
16 67 9.999999745216681E-1
16 68 9.999999958602648E-1
16 77 9.99999981147564E-1
16 78 9.999999962673947E-1
16 80 9.999999929538151E-1
16 87 9.999999876405776E-1
16 98 9.999999933327938E-1
16 108 9.99999987272556E-1
16 132 9.999999995469134E-1
16 134 9.999999748640319E-1
17 10 4.9999995938347486E-1
17 19 9.999999416400783E-1
17 22 4.9999996553185244E-1
17 24 9.999999546424292E-1
17 27 9.999999391592673E-1
17 30 9.999999439199884E-1
17 38 4.9999991459107923E-1
17 42 4.9999987393638434E-1
17 50 9.999999860867448E-1
17 63 4.9999997430025545E-1
17 66 9.999999681083729E-1
17 76 4.9999989710813436E-1
17 84 9.999999920901247E-1
17 96 4.999999511147056E-1
17 104 4.999999374074126E-1
17 105 9.999999595562001E-1
17 113 9.99999930269539E-1
17 120 4.9999995526168156E-1
17 121 9.999999923157221E-1
17 124 4.9999995363533034E-1
17 133 4.999999678809231E-1
18 1 4.999999764171396E-1
18 5 9.99999999418971E-1
18 6 4.999999772627942E-1
18 26 9.999999979697746E-1
18 28 4.999999824227993E-1
18 33 4.9999998440501126E-1
18 39 9.99999980669089E-1
18 44 9.999999921964156E-1
18 56 4.9999997978129934E-1
18 71 4.9999996183231354E-1
18 72 4.999999821589602E-1
18 74 9.999999912856709E-1
18 88 9.99999986241242E-1
18 89 9.999999880007063E-1
18 93 9.999999977746213E-1
18 100 4.999999266926976E-1
18 118 9.999999702900568E-1
18 123 9.999999942491274E-1
18 126 9.999999879961633E-1
18 129 4.999999926218858E-1
18 135 9.999999907103134E-1
19 10 9.999999626895935E-1
19 17 9.999999416400783E-1
19 22 4.999999649170695E-1
19 27 9.99999996964686E-1
19 30 9.999999984442767E-1
19 46 4.9999997652503203E-1
19 63 9.999999753455997E-1
19 66 9.999999925186446E-1
19 67 4.999999720076762E-1
19 77 4.9999995907942946E-1
19 84 4.9999994694760963E-1
19 104 4.9999989559285396E-1
19 108 4.999999634047456E-1
19 121 4.999999458078653E-1
19 124 9.999999945645058E-1
19 133 9.99999971111433E-1
19 134 4.999999699653308E-1
20 4 4.999999661720133E-1
20 9 9.999999739750518E-1
20 16 9.99999996771857E-1
20 22 9.99999988640765E-1
20 24 9.999999730570321E-1
20 31 9.999999717603628E-1
20 46 4.999999834456627E-1
20 50 4.999999673116856E-1
20 53 9.999999774809508E-1
20 59 4.9999997788451667E-1
20 67 4.999999841854266E-1
20 68 9.999999887292039E-1
20 77 9.999999706781098E-1
20 78 9.999999962735043E-1
20 80 9.999999952907567E-1
20 82 4.999999755955227E-1
20 87 9.99999989478091E-1
20 98 9.999999852792623E-1
20 108 9.99999983523216E-1
20 132 9.999999982079997E-1
20 133 4.9999997878699637E-1
20 134 4.9999998368324733E-1
21 2 4.9999998182327854E-1
21 32 9.999999992325975E-1
21 33 4.999999778913592E-1
21 39 4.9999996572493993E-1
21 58 9.999999704553176E-1
21 60 4.999999761012208E-1
21 64 9.999999744926923E-1
21 79 9.999999595628283E-1
21 81 4.9999996121086787E-1
21 83 4.999999786287561E-1
21 86 9.999999554799487E-1
21 94 9.999999990632454E-1
21 111 4.9999991837065666E-1
21 115 9.999999743987825E-1
21 116 4.999999193161437E-1
21 127 4.999999814546504E-1
21 136 9.999999566753517E-1
22 10 9.999999893664882E-1
22 16 9.999999840052359E-1
22 17 4.9999996553185244E-1
22 19 4.999999649170695E-1
22 20 9.99999988640765E-1
22 24 9.999999766706272E-1
22 27 4.999999506284795E-1
22 30 4.999999741754031E-1
22 46 9.999999900985532E-1
22 50 4.999999785730815E-1
22 63 9.999999882404164E-1
22 66 4.999999816664795E-1
22 67 9.999999883193762E-1
22 68 4.999999817965723E-1
22 77 9.999999820818899E-1
22 78 9.999999727665253E-1
22 80 4.999999846518563E-1
22 98 9.999999862262563E-1
22 108 9.999999945080972E-1
22 121 4.999999508111171E-1
22 124 4.9999994473253234E-1
22 132 9.999999886673058E-1
22 133 9.999999891892837E-1
22 134 9.99999986279086E-1
23 29 9.999998541859296E-1
23 36 9.999998063191777E-1
23 48 4.999998127524108E-1
23 52 9.999997200060411E-1
23 54 4.999998791033116E-1
23 57 9.999999796618682E-1
23 62 9.999998037550313E-1
23 97 9.999999404316271E-1
23 102 4.999997448235126E-1
23 103 9.999998399423652E-1
23 107 9.999998933105321E-1
23 122 9.999998841718644E-1
23 130 9.999997667441018E-1
23 131 9.999997488125876E-1
24 16 4.9999997607877134E-1
24 17 9.999999546424292E-1
24 20 9.999999730570321E-1
24 22 9.999999766706272E-1
24 31 9.99999961364273E-1
24 40 4.999999076965108E-1
24 50 9.999999894346674E-1
24 63 4.9999997591845996E-1
24 75 9.999999581209956E-1
24 78 4.999999774161852E-1
24 80 4.9999997937328E-1
24 84 4.9999996903527016E-1
24 105 4.999999269843194E-1
24 108 4.9999997466212526E-1
24 113 9.999999608928943E-1
24 120 4.999999428666412E-1
24 121 9.999999517449415E-1
24 132 4.99999980080505E-1
25 7 9.999999724337346E-1
25 13 9.999999544054602E-1
25 34 9.999999447777671E-1
25 37 9.999999678782138E-1
25 41 9.99999954516726E-1
25 45 9.999999818818376E-1
25 69 9.999999659347629E-1
25 72 4.999999539864039E-1
25 85 4.9999996752397946E-1
25 99 4.999998571094749E-1
25 106 9.999999799702903E-1
25 109 4.999999513766151E-1
25 114 9.999999717631655E-1
25 118 4.999999534271025E-1
25 125 9.999999662313115E-1
25 128 4.999999591405607E-1
26 1 9.999999701323606E-1
26 5 9.999999976970625E-1
26 6 4.99999981955543E-1
26 15 4.999999502905631E-1
26 18 9.999999979697746E-1
26 28 4.999999799016755E-1
26 39 4.9999998317179173E-1
26 44 9.999999975938796E-1
26 47 4.99999723395411E-1
26 56 4.999999813388213E-1
26 71 4.999999720019436E-1
26 72 4.999999807961279E-1
26 74 9.999999815028761E-1
26 88 4.999999868469165E-1
26 89 9.999999956500485E-1
26 93 9.999999978330303E-1
26 100 4.999999429050755E-1
26 118 9.999999723844193E-1
26 123 9.99999990452618E-1
26 126 9.999999956480341E-1
26 129 4.999999880242425E-1
26 135 4.999999901886899E-1
27 3 4.9999987991494654E-1
27 10 4.999999693499809E-1
27 14 4.999999265231612E-1
27 17 9.999999391592673E-1
27 19 9.99999996964686E-1
27 22 4.999999506284795E-1
27 30 9.999999911709667E-1
27 46 4.999999631861446E-1
27 63 9.999999567364872E-1
27 66 9.999999840882015E-1
27 67 4.999999575017856E-1
27 84 9.999998952777155E-1
27 104 4.999999136871276E-1
27 105 4.999999294888961E-1
27 108 4.999999473687358E-1
27 124 9.999999961290821E-1
27 133 4.99999975105712E-1
27 134 4.9999995496033867E-1
28 7 4.9999997302995564E-1
28 18 4.999999824227993E-1
28 26 4.999999799016755E-1
28 37 9.99999973423679E-1
28 41 9.99999981633038E-1
28 44 9.999999632582904E-1
28 45 4.999999703673605E-1
28 69 9.999999676641824E-1
28 72 9.999999993211266E-1
28 74 9.999999752543016E-1
28 85 9.999999957434337E-1
28 106 9.999999659243933E-1
28 114 9.999999758116597E-1
28 118 9.999999933929762E-1
28 125 9.999999774524958E-1
28 128 9.999999988784434E-1
29 23 9.999998541859296E-1
29 36 4.999998787238056E-1
29 48 9.99999942819059E-1
29 52 9.999998211026766E-1
29 54 9.999999879280057E-1
29 57 9.999999416973996E-1
29 62 9.999998081955537E-1
29 70 4.9999989308196E-1
29 97 9.999999717611089E-1
29 102 4.999999404014722E-1
29 103 4.999998285320663E-1
29 107 9.999999744865481E-1
29 110 4.999998949250455E-1
29 122 9.999999932601762E-1
29 130 9.999998086691202E-1
29 131 9.999997993057912E-1
30 10 9.999999763542129E-1
30 17 9.999999439199884E-1
30 19 9.999999984442767E-1
30 22 4.999999741754031E-1
30 27 9.999999911709667E-1
30 46 9.999999685273071E-1
30 63 9.999999858579368E-1
30 66 9.99999995975956E-1
30 67 9.999999609471044E-1
30 77 4.999999693531183E-1
30 84 4.999999474535585E-1
30 108 4.9999997329747903E-1
30 121 4.999999475583678E-1
30 124 9.999999887350849E-1
30 133 9.999999829192208E-1
30 134 4.999999787061414E-1
31 20 9.999999717603628E-1
31 24 9.99999961364273E-1
31 35 4.99999955958386E-1
31 43 4.99999930373977E-1
31 49 9.999999841202272E-1
31 51 9.999999648789086E-1
31 53 9.999999953193229E-1
31 59 9.999999960323406E-1
31 68 4.9999997860043055E-1
31 70 9.999999641036977E-1
31 75 9.999999975191483E-1
31 78 9.99999977094008E-1
31 80 9.999999840067513E-1
31 82 9.999999971565978E-1
31 87 9.999999864646496E-1
31 91 9.999999722122165E-1
31 102 4.999999552457542E-1
31 110 9.999999674964384E-1
31 113 4.9999995699072824E-1
31 117 4.99999969888906E-1
32 2 4.999999837187285E-1
32 3 4.999998775465255E-1
32 8 4.9999994847162194E-1
32 21 9.999999992325975E-1
32 33 4.999999785672344E-1
32 39 4.9999996505858646E-1
32 58 9.999999710639423E-1
32 60 4.9999997493318066E-1
32 64 9.999999746593199E-1
32 79 9.999999604167277E-1
32 81 4.999999625896294E-1
32 83 4.9999997842220034E-1
32 86 9.99999966246085E-1
32 94 9.999999991404117E-1
32 111 4.999999212341423E-1
32 112 4.9999993234238255E-1
32 115 9.99999977821581E-1
32 116 4.999999205313571E-1
32 127 4.999999812423805E-1
32 136 9.999999572117204E-1
33 2 9.99999996852886E-1
33 5 9.999999719684451E-1
33 12 4.999999820669589E-1
33 18 4.9999998440501126E-1
33 21 4.999999778913592E-1
33 32 4.999999785672344E-1
33 39 9.999999946437605E-1
33 58 9.999999984739959E-1
33 60 9.999999954691522E-1
33 61 4.999999765351217E-1
33 64 9.999999972429262E-1
33 74 9.999999780262697E-1
33 83 9.999999989852824E-1
33 86 4.9999997071074576E-1
33 88 9.999999914750299E-1
33 94 4.9999997251830164E-1
33 115 9.999999942769966E-1
33 119 4.999999502114925E-1
33 123 9.999999833334262E-1
33 127 9.999999987681648E-1
33 129 9.999999955173275E-1
33 135 9.999999920528219E-1
34 7 4.999999201641905E-1
34 13 9.999999995097713E-1
34 25 9.999999447777671E-1
34 37 4.9999992153915096E-1
34 41 4.9999990898268926E-1
34 45 4.999999321242484E-1
34 47 4.9999980213950035E-1
34 69 4.9999991636821284E-1
34 71 4.9999992854784203E-1
34 85 4.999999033530767E-1
34 99 9.999998969766422E-1
34 106 4.9999993726578934E-1
34 109 9.999999205780097E-1
34 114 4.999999405151289E-1
34 125 4.9999992197220205E-1
35 31 4.99999955958386E-1
35 36 4.999997783048686E-1
35 40 4.999999222907747E-1
35 43 9.999999590469882E-1
35 48 9.999999042300615E-1
35 49 9.999999650616145E-1
35 51 9.999999715392817E-1
35 54 4.9999990045137527E-1
35 59 4.999999632864818E-1
35 70 9.999999693383398E-1
35 73 9.999999820456085E-1
35 75 4.999999674906385E-1
35 82 4.99999969943802E-1
35 91 9.999999829729341E-1
35 102 9.999999501032197E-1
35 110 9.99999956623139E-1
35 117 9.999999950194667E-1
36 23 9.999998063191777E-1
36 29 4.999998787238056E-1
36 35 4.999997783048686E-1
36 48 4.999998275168017E-1
36 54 4.999998442434262E-1
36 57 9.999998385973015E-1
36 70 4.999997290029987E-1
36 73 4.999997829316046E-1
36 97 9.999997416340314E-1
36 102 4.99999790527583E-1
36 103 4.999996496297855E-1
36 107 4.999998304603797E-1
36 110 4.9999971547016636E-1
36 117 4.9999976308853855E-1
36 122 4.999998595742376E-1
37 7 9.999999944832826E-1
37 13 4.999999300627475E-1
37 25 9.999999678782138E-1
37 28 9.99999973423679E-1
37 34 4.9999992153915096E-1
37 41 9.999999988163545E-1
37 45 9.999999935236464E-1
37 69 9.999999992742834E-1
37 72 9.999999753069123E-1
37 74 4.999999491971687E-1
37 85 9.999999897748925E-1
37 106 9.999999982355101E-1
37 114 9.99999992337994E-1
37 118 9.999999645761132E-1
37 125 9.999999997533726E-1
37 128 9.999999823052265E-1
38 3 9.999998329770232E-1
38 8 4.999998952266631E-1
38 14 9.999999021149463E-1
38 17 4.9999991459107923E-1
38 42 9.999998069702413E-1
38 76 9.999999970437727E-1
38 84 4.999999335252718E-1
38 90 4.999998149023167E-1
38 92 9.999998049036979E-1
38 96 9.99999979562871E-1
38 104 9.999999936229637E-1
38 105 9.999999449221926E-1
38 111 4.99999888277767E-1
38 112 9.99999911028814E-1
38 116 4.999998578909939E-1
38 120 4.999999039420298E-1
38 121 4.9999992190253284E-1
39 2 9.999999834161446E-1
39 5 9.999999804309393E-1
39 18 9.99999980669089E-1
39 21 4.9999996572493993E-1
39 26 4.9999998317179173E-1
39 32 4.9999996505858646E-1
39 33 9.999999946437605E-1
39 58 9.999999903926575E-1
39 60 9.999999976617131E-1
39 64 9.999999886989797E-1
39 74 9.999999934912002E-1
39 83 9.999999967018994E-1
39 88 9.999999993858995E-1
39 93 4.999999871586496E-1
39 115 4.9999998904166054E-1
39 123 9.999999841857485E-1
39 127 9.999999949520945E-1
39 129 9.999999925222827E-1
39 135 9.999999980346681E-1
40 24 4.999999076965108E-1
40 35 4.999999222907747E-1
40 42 9.999999273700625E-1
40 43 9.999999606177742E-1
40 50 4.9999991729828525E-1
40 51 4.999999517110734E-1
40 73 9.999998943884146E-1
40 75 4.999999090720467E-1
40 84 4.999999197044655E-1
40 91 4.999999156401445E-1
40 92 9.999998356675788E-1
40 113 9.999999450471714E-1
40 120 9.999999626077894E-1
40 121 4.9999992590438785E-1
41 7 9.999999906441973E-1
41 13 4.999999181668416E-1
41 25 9.99999954516726E-1
41 28 9.99999981633038E-1
41 34 4.9999990898268926E-1
41 37 9.999999988163545E-1
41 45 9.999999878427973E-1
41 69 9.999999980314387E-1
41 72 9.999999821291127E-1
41 74 4.999999583278388E-1
41 85 9.999999937340756E-1
41 106 9.999999946036262E-1
41 114 9.999999898488409E-1
41 118 9.999999701350121E-1
41 125 9.999999990002382E-1
41 128 9.999999882418256E-1
42 17 4.9999987393638434E-1
42 38 9.999998069702413E-1
42 40 9.999999273700625E-1
42 43 4.9999989054507954E-1
42 50 4.999998730325737E-1
42 76 9.999998254566954E-1
42 84 4.999999144773647E-1
42 90 4.9999986756536624E-1
42 92 9.999999799232063E-1
42 96 9.999998902164601E-1
42 104 4.999998882434204E-1
42 105 9.999998701188659E-1
42 113 4.999999228083099E-1
42 120 9.999999446809532E-1
42 121 4.999999124665828E-1
43 31 4.99999930373977E-1
43 35 9.999999590469882E-1
43 40 9.999999606177742E-1
43 42 4.9999989054507954E-1
43 49 4.999999491578595E-1
43 51 9.9999996546773E-1
43 70 4.999999404700912E-1
43 73 9.999999827546295E-1
43 75 4.9999994770279177E-1
43 82 4.9999994279604243E-1
43 91 9.999999344655955E-1
43 92 4.9999981868268784E-1
43 110 4.9999992979464486E-1
43 113 9.999999221848093E-1
43 117 9.999999344947195E-1
43 120 9.999998806679492E-1
44 1 9.999999782199767E-1
44 5 9.999999906628364E-1
44 6 4.999999783507123E-1
44 15 4.999999522496237E-1
44 18 9.999999921964156E-1
44 26 9.999999975938796E-1
44 28 9.999999632582904E-1
44 47 4.999997506014677E-1
44 71 9.999999644916825E-1
44 72 9.999999672382469E-1
44 74 4.999999858019526E-1
44 85 4.999999731933452E-1
44 89 9.999999965377324E-1
44 93 9.999999911802399E-1
44 99 4.999997937845869E-1
44 100 4.999999549642098E-1
44 109 4.999999595943941E-1
44 118 9.999999805935668E-1
44 123 9.999999785583337E-1
44 126 9.999999965400135E-1
44 128 4.999999787670174E-1
44 135 4.999999829599106E-1
45 7 9.999999990110273E-1
45 13 9.999998798214421E-1
45 25 9.999999818818376E-1
45 28 4.999999703673605E-1
45 34 4.999999321242484E-1
45 37 9.999999935236464E-1
45 41 9.999999878427973E-1
45 69 9.999999954388716E-1
45 72 4.999999718515605E-1
45 85 9.999999671326737E-1
45 106 9.999999943134406E-1
45 114 9.999999803172238E-1
45 118 4.9999996510036226E-1
45 125 9.999999911065112E-1
45 128 9.999999544529701E-1
46 10 9.999999993914259E-1
46 16 9.999999708370079E-1
46 19 4.9999997652503203E-1
46 20 4.999999834456627E-1
46 22 9.999999900985532E-1
46 27 4.999999631861446E-1
46 30 9.999999685273071E-1
46 63 9.999999931782804E-1
46 66 9.999999708854466E-1
46 67 9.999999994512477E-1
46 77 9.999999942996369E-1
46 98 9.999999885097897E-1
46 108 9.999999966408661E-1
46 124 4.999999630154757E-1
46 132 9.99999974710616E-1
46 133 9.999999968168194E-1
46 134 9.999999987465062E-1
47 1 4.999998337587609E-1
47 6 4.999997626517632E-1
47 13 4.9999979625159846E-1
47 15 4.99999855057994E-1
47 26 4.99999723395411E-1
47 34 4.9999980213950035E-1
47 44 4.999997506014677E-1
47 71 4.99999848853274E-1
47 89 4.999997671578329E-1
47 95 4.999998637945052E-1
47 99 9.999998799891746E-1
47 100 4.9999991748546657E-1
47 109 4.9999986709597644E-1
47 126 4.999997671783709E-1
48 11 9.999998591883152E-1
48 23 4.999998127524108E-1
48 29 9.99999942819059E-1
48 35 9.999999042300615E-1
48 36 4.999998275168017E-1
48 49 4.999999571160785E-1
48 52 4.9999983438884016E-1
48 54 9.999999799207521E-1
48 57 4.999998898548735E-1
48 59 4.9999994329933345E-1
48 62 4.999998013208834E-1
48 70 9.999999501357251E-1
48 82 4.9999993608326143E-1
48 91 4.9999995140913955E-1
48 97 4.9999991738636324E-1
48 102 9.999999886891632E-1
48 103 4.999996706590811E-1
48 107 9.999998570294117E-1
48 110 9.999999514117728E-1
48 117 9.99999930763283E-1
48 122 9.999999035457282E-1
48 130 4.999998110334886E-1
48 131 4.9999980767738506E-1
49 31 9.999999841202272E-1
49 35 9.999999650616145E-1
49 43 4.999999491578595E-1
49 48 4.999999571160785E-1
49 51 9.999999765849039E-1
49 53 9.99999976752615E-1
49 54 4.999999075381906E-1
49 59 9.999999927534339E-1
49 70 9.999999950548668E-1
49 73 4.9999995192021285E-1
49 75 9.999999892135777E-1
49 80 4.999999717688001E-1
49 82 9.999999945334604E-1
49 87 4.999999768557502E-1
49 91 9.999999958003002E-1
49 102 9.999999648340073E-1
49 110 9.999999939907733E-1
49 117 9.999999843090043E-1
50 10 4.999999633827355E-1
50 17 9.999999860867448E-1
50 20 4.999999673116856E-1
50 22 4.999999785730815E-1
50 24 9.999999894346674E-1
50 40 4.9999991729828525E-1
50 42 4.999998730325737E-1
50 63 4.9999997471691077E-1
50 66 9.999999493469806E-1
50 84 9.999999785393E-1
50 96 4.9999992339693533E-1
50 105 9.99999921584913E-1
50 108 4.9999996089729326E-1
50 113 9.999999684245121E-1
50 120 9.999999247453882E-1
50 121 9.999999860062145E-1
50 133 4.999999696937329E-1
51 31 9.999999648789086E-1
51 35 9.999999715392817E-1
51 40 4.999999517110734E-1
51 43 9.9999996546773E-1
51 49 9.999999765849039E-1
51 53 4.99999968651903E-1
51 59 9.999999601996056E-1
51 70 9.999999584017826E-1
51 73 9.99999946445927E-1
51 75 9.999999810613881E-1
51 82 9.99999976214496E-1
51 91 9.999999887546904E-1
51 102 4.9999995160463967E-1
51 110 9.999999493805527E-1
51 113 9.999999513340743E-1
51 117 9.999999731331861E-1
51 120 4.999999340701181E-1
52 11 4.999998836050372E-1
52 23 9.999997200060411E-1
52 29 9.999998211026766E-1
52 48 4.9999983438884016E-1
52 54 9.999997970331734E-1
52 57 9.999997743144602E-1
52 62 9.999999834991948E-1
52 65 9.999997460122021E-1
52 97 9.999998740416023E-1
52 103 9.999998612646861E-1
52 107 9.999999189884174E-1
52 122 9.999998757385874E-1
52 130 9.999999939869844E-1
52 131 9.99999995480561E-1
53 4 4.999999702947131E-1
53 9 4.999999767394753E-1
53 11 4.999999279948417E-1
53 16 4.9999998533541434E-1
53 20 9.999999774809508E-1
53 31 9.999999953193229E-1
53 49 9.99999976752615E-1
53 51 4.99999968651903E-1
53 59 9.999999954640038E-1
53 65 4.999998905261994E-1
53 68 9.999999764273103E-1
53 70 9.999999604620714E-1
53 75 9.999999868291378E-1
53 78 9.999999878297974E-1
53 80 9.999999922816976E-1
53 82 9.999999901706681E-1
53 87 9.999999960715924E-1
53 91 4.999999782351505E-1
53 102 4.999999572994559E-1
53 110 9.999999680270235E-1
53 132 4.9999998462743545E-1
54 11 9.999998558638739E-1
54 23 4.999998791033116E-1
54 29 9.999999879280057E-1
54 35 4.9999990045137527E-1
54 36 4.999998442434262E-1
54 48 9.999999799207521E-1
54 49 4.999999075381906E-1
54 52 9.999997970331734E-1
54 57 9.999998767073498E-1
54 62 4.9999987813527563E-1
54 65 4.999998738312654E-1
54 70 4.999999345171774E-1
54 97 9.9999992690705E-1
54 102 9.999999390585433E-1
54 103 4.999997756220886E-1
54 107 9.999999440977656E-1
54 110 4.999999371124215E-1
54 117 4.99999918387233E-1
54 122 9.999999707594073E-1
54 130 4.999998837840892E-1
54 131 4.999998803501069E-1
55 1 4.9999988715000204E-1
55 6 4.999999421402883E-1
55 8 9.999999385784193E-1
55 12 4.999999448320723E-1
55 15 9.999998876844071E-1
55 56 4.999999430606932E-1
55 61 4.9999995134815883E-1
55 76 4.999998948035917E-1
55 86 4.999999272583515E-1
55 90 9.99999906447594E-1
55 92 4.999998584864499E-1
55 95 9.999999176911172E-1
55 101 9.999999422403063E-1
55 112 9.999998818658654E-1
55 119 9.999999525146743E-1
56 1 4.9999997502008414E-1
56 2 4.9999997919817574E-1
56 5 9.99999968573561E-1
56 6 9.999999947058792E-1
56 8 4.999999673209668E-1
56 12 9.99999989319263E-1
56 15 4.9999997190798506E-1
56 18 4.9999997978129934E-1
56 26 4.999999813388213E-1
56 55 4.999999430606932E-1
56 61 9.999999793232438E-1
56 89 9.999999681168296E-1
56 93 9.99999975828473E-1
56 95 4.9999994335002484E-1
56 101 9.999999875267724E-1
56 119 9.999999632803219E-1
56 123 9.999999798238938E-1
56 126 9.999999681021516E-1
56 129 4.999999855715205E-1
57 23 9.999999796618682E-1
57 29 9.999999416973996E-1
57 36 9.999998385973015E-1
57 48 4.999998898548735E-1
57 52 9.999997743144602E-1
57 54 9.999998767073498E-1
57 62 9.999998231926872E-1
57 97 9.999999825831357E-1
57 102 4.999998364611952E-1
57 103 9.999997900977337E-1
57 107 9.999999515282042E-1
57 122 9.999999554542122E-1
57 130 9.999997992957114E-1
57 131 9.999997839548979E-1
58 2 9.999999966972399E-1
58 8 4.9999994391227787E-1
58 12 4.999999791467008E-1
58 21 9.999999704553176E-1
58 32 9.999999710639423E-1
58 33 9.999999984739959E-1
58 39 9.999999903926575E-1
58 60 9.999999949938979E-1
58 61 4.9999997484683967E-1
58 64 9.999999998094772E-1
58 79 4.9999993189818936E-1
58 83 9.999999983231466E-1
58 86 4.999999739920347E-1
58 88 9.999999853657332E-1
58 94 4.999999806238772E-1
58 115 9.999999965743215E-1
58 123 4.999999859266014E-1
58 127 9.999999991501347E-1
58 129 9.999999889275225E-1
58 135 9.999999846118307E-1
58 136 4.99999928974941E-1
59 4 4.9999995681638965E-1
59 11 4.9999992013944256E-1
59 20 4.9999997788451667E-1
59 31 9.999999960323406E-1
59 35 4.999999632864818E-1
59 48 4.9999994329933345E-1
59 49 9.999999927534339E-1
59 51 9.999999601996056E-1
59 53 9.999999954640038E-1
59 65 4.9999987432250104E-1
59 70 9.999999815518855E-1
59 73 4.999999240972287E-1
59 75 9.999999935130046E-1
59 78 9.999999687105205E-1
59 80 9.999999764486404E-1
59 82 9.999999977775336E-1
59 87 9.99999983093174E-1
59 91 9.999999795257952E-1
59 102 4.9999997136777186E-1
59 110 9.999999853279453E-1
59 117 9.999999557477849E-1
60 2 9.999999857648585E-1
60 5 4.999999826065476E-1
60 21 4.999999761012208E-1
60 32 4.9999997493318066E-1
60 33 9.999999954691522E-1
60 39 9.999999976617131E-1
60 58 9.999999949938979E-1
60 64 9.999999945992563E-1
60 74 9.999999845594951E-1
60 83 9.999999986924935E-1
60 88 9.999999947711811E-1
60 94 4.99999969447717E-1
60 115 9.999999834525547E-1
60 123 4.9999998631443193E-1
60 127 9.999999982193587E-1
60 129 9.999999870286982E-1
60 135 9.99999991694186E-1
61 2 9.999999720410764E-1
61 6 9.999999553195486E-1
61 8 9.999999828354553E-1
61 12 9.999999978370672E-1
61 33 4.999999765351217E-1
61 55 4.9999995134815883E-1
61 56 9.999999793232438E-1
61 58 4.9999997484683967E-1
61 64 4.999999731352257E-1
61 86 9.999999838043355E-1
61 90 4.9999980918113107E-1
61 95 4.99999910431952E-1
61 101 9.999999903665567E-1
61 112 4.9999995659139135E-1
61 115 4.9999998493725684E-1
61 119 9.999999901844466E-1
61 123 4.999999757034471E-1
61 129 4.999999794438902E-1
62 11 4.999998216961482E-1
62 23 9.999998037550313E-1
62 29 9.999998081955537E-1
62 48 4.999998013208834E-1
62 52 9.999999834991948E-1
62 54 4.9999987813527563E-1
62 57 9.999998231926872E-1
62 65 4.9999980213172107E-1
62 97 9.99999895740342E-1
62 103 9.999999398405878E-1
62 107 9.99999921549676E-1
62 122 9.999998720786558E-1
62 130 9.999999972369934E-1
62 131 9.999999952521312E-1
63 10 9.99999996422342E-1
63 17 4.9999997430025545E-1
63 19 9.999999753455997E-1
63 22 9.999999882404164E-1
63 24 4.9999997591845996E-1
63 27 9.999999567364872E-1
63 30 9.999999858579368E-1
63 46 9.999999931782804E-1
63 50 4.9999997471691077E-1
63 66 9.99999991458211E-1
63 67 9.999999887629808E-1
63 77 9.999999751499182E-1
63 84 4.999999510623948E-1
63 98 4.9999998391513734E-1
63 108 9.999999850200192E-1
63 121 4.999999547076785E-1
63 124 4.99999974898576E-1
63 132 4.9999997870739377E-1
63 133 9.999999992656865E-1
63 134 9.999999860891017E-1
64 2 9.999999955470349E-1
64 12 4.999999771389692E-1
64 21 9.999999744926923E-1
64 32 9.999999746593199E-1
64 33 9.999999972429262E-1
64 39 9.999999886989797E-1
64 58 9.999999998094772E-1
64 60 9.999999945992563E-1
64 61 4.999999731352257E-1
64 79 4.9999993592440045E-1
64 81 4.9999990646395387E-1
64 83 9.99999997603198E-1
64 86 4.999999739622839E-1
64 88 9.999999830889799E-1
64 94 4.999999828199041E-1
64 115 9.999999962284981E-1
64 123 4.999999835386942E-1
64 127 9.999999987523321E-1
64 129 9.999999858482947E-1
64 135 9.999999817053682E-1
64 136 4.999999331354308E-1
65 4 9.999999399807018E-1
65 9 4.999999358154595E-1
65 11 9.99999982197415E-1
65 16 4.99999894368963E-1
65 52 9.999997460122021E-1
65 53 4.999998905261994E-1
65 54 4.999998738312654E-1
65 59 4.9999987432250104E-1
65 62 4.9999980213172107E-1
65 68 4.9999992029757573E-1
65 78 4.999998979514074E-1
65 80 4.99999893041646E-1
65 87 4.999999016855314E-1
65 98 4.999998860598172E-1
65 130 4.999998312253802E-1
65 131 4.999998369897786E-1
65 132 4.9999988435890674E-1
66 10 9.999999786580384E-1
66 17 9.999999681083729E-1
66 19 9.999999925186446E-1
66 22 4.999999816664795E-1
66 27 9.999999840882015E-1
66 30 9.99999995975956E-1
66 46 9.999999708854466E-1
66 50 9.999999493469806E-1
66 63 9.99999991458211E-1
66 67 9.999999624985046E-1
66 84 4.999999642928911E-1
66 105 4.999999351797658E-1
66 108 4.999999769315484E-1
66 121 4.99999965088474E-1
66 124 9.999999743293493E-1
66 133 9.999999867816266E-1
66 134 9.999999581020204E-1
67 9 4.999999776908557E-1
67 10 9.999999977359015E-1
67 16 9.999999745216681E-1
67 19 4.999999720076762E-1
67 20 4.999999841854266E-1
67 22 9.999999883193762E-1
67 27 4.999999575017856E-1
67 30 9.999999609471044E-1
67 46 9.999999994512477E-1
67 63 9.999999887629808E-1
67 66 9.999999624985046E-1
67 77 9.999999972658756E-1
67 98 9.999999920123127E-1
67 108 9.999999975453662E-1
67 124 4.9999995822173604E-1
67 132 9.999999774011948E-1
67 133 9.999999936300241E-1
67 134 9.99999999847248E-1
68 4 9.999999761306582E-1
68 9 9.999999955793353E-1
68 11 4.999999377757362E-1
68 16 9.999999958602648E-1
68 20 9.999999887292039E-1
68 22 4.999999817965723E-1
68 31 4.9999997860043055E-1
68 53 9.999999764273103E-1
68 65 4.9999992029757573E-1
68 77 9.999999681514558E-1
68 78 9.999999960549493E-1
68 80 9.999999928681339E-1
68 87 9.99999991520469E-1
68 98 9.999999845212407E-1
68 108 9.99999971182233E-1
68 132 9.999999928187838E-1
69 7 9.99999997241432E-1
69 13 4.999999251721943E-1
69 25 9.999999659347629E-1
69 28 9.999999676641824E-1
69 34 4.9999991636821284E-1
69 37 9.999999992742834E-1
69 41 9.999999980314387E-1
69 45 9.999999954388716E-1
69 72 9.999999686932283E-1
69 74 4.999999446207242E-1
69 85 9.999999852528483E-1
69 106 9.999999963686689E-1
69 114 9.999999870432736E-1
69 118 4.999999775142091E-1
69 125 9.999999982412121E-1
69 128 9.999999769002313E-1
70 11 4.999999138604718E-1
70 29 4.9999989308196E-1
70 31 9.999999641036977E-1
70 35 9.999999693383398E-1
70 36 4.999997290029987E-1
70 43 4.999999404700912E-1
70 48 9.999999501357251E-1
70 49 9.999999950548668E-1
70 51 9.999999584017826E-1
70 53 9.999999604620714E-1
70 54 4.999999345171774E-1
70 59 9.999999815518855E-1
70 73 4.9999995246705636E-1
70 75 9.999999698519831E-1
70 82 9.999999801597231E-1
70 87 4.9999996636445715E-1
70 91 9.999999902850872E-1
70 102 9.999999862056949E-1
70 110 9.999999988988499E-1
70 117 9.999999890674363E-1
71 1 9.999999747063475E-1
71 5 4.999999594964374E-1
71 13 4.9999993325840686E-1
71 15 4.9999994944029524E-1
71 18 4.9999996183231354E-1
71 26 4.999999720019436E-1
71 34 4.9999992854784203E-1
71 44 9.999999644916825E-1
71 47 4.99999848853274E-1
71 72 4.999999649725684E-1
71 89 9.999999597765953E-1
71 93 4.999999614883314E-1
71 99 4.9999989704572306E-1
71 100 9.999999719012368E-1
71 109 9.999999894203822E-1
71 114 9.999999336943958E-1
71 118 4.999999784986305E-1
71 126 9.999999597943754E-1
71 128 4.99999960952763E-1
72 7 4.999999737020578E-1
72 18 4.999999821589602E-1
72 25 4.999999539864039E-1
72 26 4.999999807961279E-1
72 28 9.999999993211266E-1
72 37 9.999999753069123E-1
72 41 9.999999821291127E-1
72 44 9.999999672382469E-1
72 45 4.999999718515605E-1
72 69 9.999999686932283E-1
72 71 4.999999649725684E-1
72 74 4.999999853057295E-1
72 85 9.999999968615821E-1
72 106 9.999999699793031E-1
72 109 4.9999995015816195E-1
72 114 9.99999981280867E-1
72 118 9.999999966301324E-1
72 125 9.999999795589833E-1
72 128 9.999999993488559E-1
73 35 9.999999820456085E-1
73 36 4.999997829316046E-1
73 40 9.999998943884146E-1
73 43 9.999999827546295E-1
73 49 4.9999995192021285E-1
73 51 9.99999946445927E-1
73 59 4.999999240972287E-1
73 70 4.9999995246705636E-1
73 75 4.9999993699231804E-1
73 82 4.999999367323169E-1
73 91 9.999999390191684E-1
73 102 4.9999993857241565E-1
73 110 4.9999994173304024E-1
73 113 4.999999227623792E-1
73 117 9.999999582910477E-1
74 5 9.999999883865355E-1
74 18 9.999999912856709E-1
74 26 9.999999815028761E-1
74 28 9.999999752543016E-1
74 33 9.999999780262697E-1
74 37 4.999999491971687E-1
74 39 9.999999934912002E-1
74 41 4.999999583278388E-1
74 44 4.999999858019526E-1
74 60 9.999999845594951E-1
74 69 4.999999446207242E-1
74 72 4.999999853057295E-1
74 83 9.999999809857008E-1
74 85 4.9999997524971646E-1
74 88 9.999999967551445E-1
74 93 9.999999820943986E-1
74 118 4.9999998287274544E-1
74 123 9.999999835973197E-1
74 125 4.9999995296603417E-1
74 127 9.999999769951189E-1
74 128 4.9999998191856093E-1
74 129 4.999999917764779E-1
74 135 9.999999957967531E-1
75 24 9.999999581209956E-1
75 31 9.999999975191483E-1
75 35 4.999999674906385E-1
75 40 4.999999090720467E-1
75 43 4.9999994770279177E-1
75 49 9.999999892135777E-1
75 51 9.999999810613881E-1
75 53 9.999999868291378E-1
75 59 9.999999935130046E-1
75 70 9.999999698519831E-1
75 73 4.9999993699231804E-1
75 78 4.999999799840579E-1
75 80 9.999999692697107E-1
75 82 9.999999985329923E-1
75 87 9.999999724012044E-1
75 91 9.999999836825987E-1
75 102 4.9999995805032826E-1
75 110 9.99999969951227E-1
75 113 4.9999996511468486E-1
75 117 9.999999558830467E-1
75 120 4.999999085890576E-1
76 3 9.999998015759436E-1
76 8 4.999999090718713E-1
76 14 9.999998716772862E-1
76 17 4.9999989710813436E-1
76 38 9.999999970437727E-1
76 42 9.999998254566954E-1
76 55 4.999998948035917E-1
76 84 4.999999208429141E-1
76 90 4.9999984624088056E-1
76 92 9.999998360139568E-1
76 96 9.999999745224913E-1
76 104 9.999999820400785E-1
76 105 9.999999298468993E-1
76 111 4.999998749390691E-1
76 112 9.999999224103022E-1
76 120 4.9999990062698596E-1
76 121 4.99999908647778E-1
77 4 4.999999587932595E-1
77 9 9.999999724646049E-1
77 10 9.999999900261002E-1
77 16 9.99999981147564E-1
77 19 4.9999995907942946E-1
77 20 9.999999706781098E-1
77 22 9.999999820818899E-1
77 30 4.999999693531183E-1
77 46 9.999999942996369E-1
77 63 9.999999751499182E-1
77 67 9.999999972658756E-1
77 68 9.999999681514558E-1
77 78 4.999999803188905E-1
77 98 9.999999968566274E-1
77 108 9.999999964234674E-1
77 124 4.999999440688423E-1
77 132 9.999999818086714E-1
77 133 9.999999826072897E-1
77 134 9.999999982658051E-1
78 4 4.999999784579002E-1
78 9 9.999999834780268E-1
78 11 4.999999230461711E-1
78 16 9.999999962673947E-1
78 20 9.999999962735043E-1
78 22 9.999999727665253E-1
78 24 4.999999774161852E-1
78 31 9.99999977094008E-1
78 53 9.999999878297974E-1
78 59 9.999999687105205E-1
78 65 4.999998979514074E-1
78 68 9.999999960549493E-1
78 75 4.999999799840579E-1
78 77 4.999999803188905E-1
78 80 9.999999993800586E-1
78 82 4.9999998011459396E-1
78 87 9.999999974569908E-1
78 98 9.999999796423658E-1
78 108 9.999999710912222E-1
78 132 9.999999953235825E-1
79 2 4.9999992979274005E-1
79 3 9.999999004192828E-1
79 14 4.9999991082276785E-1
79 21 9.999999595628283E-1
79 32 9.999999604167277E-1
79 58 4.9999993189818936E-1
79 64 4.9999993592440045E-1
79 81 9.99999993604353E-1
79 86 4.9999995676532766E-1
79 94 9.999999700785399E-1
79 111 9.999999570224819E-1
79 112 9.99999869632989E-1
79 115 4.9999994114188495E-1
79 116 9.999999597529189E-1
79 136 9.999999999053438E-1
80 4 4.999999757373048E-1
80 9 9.99999977230386E-1
80 11 4.999999214060922E-1
80 16 9.999999929538151E-1
80 20 9.999999952907567E-1
80 22 4.999999846518563E-1
80 24 4.9999997937328E-1
80 31 9.999999840067513E-1
80 49 4.999999717688001E-1
80 53 9.999999922816976E-1
80 59 9.999999764486404E-1
80 65 4.99999893041646E-1
80 68 9.999999928681339E-1
80 75 9.999999692697107E-1
80 78 9.999999993800586E-1
80 82 9.999999694902211E-1
80 87 9.999999988470527E-1
80 98 4.9999998630902487E-1
80 132 9.999999923168429E-1
81 3 9.999999440486874E-1
81 8 4.9999990512886766E-1
81 14 9.999998790150011E-1
81 21 4.9999996121086787E-1
81 32 4.999999625896294E-1
81 64 4.9999990646395387E-1
81 79 9.99999993604353E-1
81 86 4.999999428616628E-1
81 94 9.999999378182044E-1
81 111 9.999999837846004E-1
81 112 9.999998743010372E-1
81 115 4.999999149873962E-1
81 116 9.999999839950692E-1
81 136 9.999999942513705E-1
82 20 4.999999755955227E-1
82 31 9.999999971565978E-1
82 35 4.99999969943802E-1
82 43 4.9999994279604243E-1
82 48 4.9999993608326143E-1
82 49 9.999999945334604E-1
82 51 9.99999976214496E-1
82 53 9.999999901706681E-1
82 59 9.999999977775336E-1
82 70 9.999999801597231E-1
82 73 4.999999367323169E-1
82 75 9.999999985329923E-1
82 78 4.9999998011459396E-1
82 80 9.999999694902211E-1
82 87 9.999999749116122E-1
82 91 9.999999868436875E-1
82 102 4.9999996752527015E-1
82 110 9.999999812003268E-1
82 113 4.999999545962814E-1
82 117 9.999999630717404E-1
83 2 9.999999930422705E-1
83 5 4.9999998414609265E-1
83 21 4.999999786287561E-1
83 32 4.9999997842220034E-1
83 33 9.999999989852824E-1
83 39 9.999999967018994E-1
83 58 9.999999983231466E-1
83 60 9.999999986924935E-1
83 64 9.99999997603198E-1
83 74 9.999999809857008E-1
83 88 9.999999934229904E-1
83 94 4.9999997277349956E-1
83 115 9.999999908975613E-1
83 123 4.9999998912853644E-1
83 127 9.99999999799632E-1
83 129 9.999999920662873E-1
83 135 9.999999921760766E-1
84 17 9.999999920901247E-1
84 19 4.9999994694760963E-1
84 24 4.9999996903527016E-1
84 27 9.999998952777155E-1
84 30 4.999999474535585E-1
84 38 4.999999335252718E-1
84 40 4.999999197044655E-1
84 42 4.999999144773647E-1
84 50 9.999999785393E-1
84 63 4.999999510623948E-1
84 66 4.999999642928911E-1
84 76 4.999999208429141E-1
84 92 4.99999865083795E-1
84 96 9.999999397418298E-1
84 104 9.999998988699342E-1
84 105 9.999999821597282E-1
84 113 9.999999488204049E-1
84 120 9.999999517677821E-1
84 121 9.9999999900296E-1
85 7 9.999999698447374E-1
85 13 4.999999125606688E-1
85 25 4.9999996752397946E-1
85 28 9.999999957434337E-1
85 34 4.999999033530767E-1
85 37 9.999999897748925E-1
85 41 9.999999937340756E-1
85 44 4.999999731933452E-1
85 45 9.999999671326737E-1
85 69 9.999999852528483E-1
85 72 9.999999968615821E-1
85 74 4.9999997524971646E-1
85 106 9.999999857331127E-1
85 109 4.999999492937602E-1
85 114 9.999999909168128E-1
85 118 9.999999908879437E-1
85 125 9.999999924256422E-1
85 128 9.999999989345567E-1
86 2 4.9999998261058193E-1
86 3 4.999998760898554E-1
86 8 9.999999811411759E-1
86 12 9.999999733824539E-1
86 21 9.999999554799487E-1
86 32 9.99999966246085E-1
86 33 4.9999997071074576E-1
86 55 4.999999272583515E-1
86 58 4.999999739920347E-1
86 61 9.999999838043355E-1
86 64 4.999999739622839E-1
86 79 4.9999995676532766E-1
86 81 4.999999428616628E-1
86 94 9.99999959062818E-1
86 101 9.999999524652454E-1
86 111 4.9999990720276E-1
86 112 9.9999995020767E-1
86 115 4.999999855365924E-1
86 116 4.999998953881866E-1
86 119 9.999999702568064E-1
86 136 4.999999538579148E-1
87 4 9.99999957657208E-1
87 9 9.999999755141711E-1
87 11 4.9999993136699433E-1
87 16 9.999999876405776E-1
87 20 9.99999989478091E-1
87 31 9.999999864646496E-1
87 49 4.999999768557502E-1
87 53 9.999999960715924E-1
87 59 9.99999983093174E-1
87 65 4.999999016855314E-1
87 68 9.99999991520469E-1
87 70 4.9999996636445715E-1
87 75 9.999999724012044E-1
87 78 9.999999974569908E-1
87 80 9.999999988470527E-1
87 82 9.999999749116122E-1
87 98 4.9999998149086117E-1
87 110 4.999999719164094E-1
87 132 9.999999859624015E-1
88 2 4.9999998933572354E-1
88 5 9.9999998542264E-1
88 18 9.99999986241242E-1
88 26 4.999999868469165E-1
88 33 9.999999914750299E-1
88 39 9.999999993858995E-1
88 58 9.999999853657332E-1
88 60 9.999999947711811E-1
88 64 9.999999830889799E-1
88 74 9.999999967551445E-1
88 83 9.999999934229904E-1
88 93 9.999999795720483E-1
88 115 4.999999858919276E-1
88 123 9.999999867877712E-1
88 127 9.999999909725488E-1
88 129 9.99999992202967E-1
88 135 9.999999991223153E-1
89 1 9.9999998837694E-1
89 5 9.999999891802775E-1
89 6 9.999999771134165E-1
89 15 4.999999678015134E-1
89 18 9.999999880007063E-1
89 26 9.999999956500485E-1
89 44 9.999999965377324E-1
89 47 4.999997671578329E-1
89 56 9.999999681168296E-1
89 71 9.999999597765953E-1
89 93 9.99999992520454E-1
89 95 4.9999992507818286E-1
89 100 4.99999961315094E-1
89 109 4.9999995424439764E-1
89 118 4.999999804901376E-1
89 123 9.999999811881479E-1
89 126 9.99999999999998E-1
89 129 4.999999800557738E-1
89 135 4.9999998006754165E-1
90 6 4.9999981410371785E-1
90 8 4.9999985251959667E-1
90 15 4.9999985799928276E-1
90 38 4.999998149023167E-1
90 42 4.9999986756536624E-1
90 55 9.99999906447594E-1
90 61 4.9999980918113107E-1
90 76 4.9999984624088056E-1
90 92 9.999998607170565E-1
90 95 9.999998271515006E-1
90 96 4.999998039991138E-1
90 101 4.999998534131188E-1
90 112 4.9999982944282656E-1
90 119 4.9999986316310185E-1
91 31 9.999999722122165E-1
91 35 9.999999829729341E-1
91 40 4.999999156401445E-1
91 43 9.999999344655955E-1
91 48 4.9999995140913955E-1
91 49 9.999999958003002E-1
91 51 9.999999887546904E-1
91 53 4.999999782351505E-1
91 59 9.999999795257952E-1
91 70 9.999999902850872E-1
91 73 9.999999390191684E-1
91 75 9.999999836825987E-1
91 82 9.999999868436875E-1
91 102 9.999999575171897E-1
91 110 9.999999849307561E-1
91 113 4.9999994907606515E-1
91 117 9.999999930742597E-1
92 38 9.999998049036979E-1
92 40 9.999998356675788E-1
92 42 9.999999799232063E-1
92 43 4.9999981868268784E-1
92 55 4.999998584864499E-1
92 76 9.999998360139568E-1
92 84 4.99999865083795E-1
92 90 9.999998607170565E-1
92 96 9.99999860681491E-1
92 104 4.999998772578272E-1
92 105 4.999999043090884E-1
92 113 4.999998590847724E-1
92 120 9.999998637645328E-1
92 121 4.9999985943238745E-1
93 1 4.9999998167675624E-1
93 5 9.999999993129313E-1
93 6 9.99999972268914E-1
93 15 4.999999517014529E-1
93 18 9.999999977746213E-1
93 26 9.999999978330303E-1
93 39 4.999999871586496E-1
93 44 9.999999911802399E-1
93 56 9.99999975828473E-1
93 71 4.999999614883314E-1
93 74 9.999999820943986E-1
93 88 9.999999795720483E-1
93 89 9.99999992520454E-1
93 95 4.999999041623144E-1
93 100 4.9999993358896455E-1
93 101 4.9999996499223087E-1
93 123 9.999999971351874E-1
93 126 9.999999925143692E-1
93 129 9.99999986879743E-1
93 135 9.999999865400171E-1
94 2 4.99999978044121E-1
94 3 4.9999988724868644E-1
94 21 9.999999990632454E-1
94 32 9.999999991404117E-1
94 33 4.9999997251830164E-1
94 58 4.999999806238772E-1
94 60 4.99999969447717E-1
94 64 4.999999828199041E-1
94 79 9.999999700785399E-1
94 81 9.999999378182044E-1
94 83 4.9999997277349956E-1
94 86 9.99999959062818E-1
94 111 4.9999992995158865E-1
94 115 4.999999841417038E-1
94 116 4.999999302783355E-1
94 127 4.9999997597188944E-1
94 136 9.999999674336466E-1
95 1 4.9999995155267907E-1
95 6 4.999999606199534E-1
95 12 4.9999991630025903E-1
95 15 9.999999818752137E-1
95 47 4.999998637945052E-1
95 55 9.999999176911172E-1
95 56 4.9999994335002484E-1
95 61 4.99999910431952E-1
95 89 4.9999992507818286E-1
95 90 9.999998271515006E-1
95 93 4.999999041623144E-1
95 100 9.999998970061241E-1
95 101 4.9999994692118127E-1
95 119 4.999999277940747E-1
95 126 4.999999250760843E-1
96 14 9.999998391071837E-1
96 17 4.999999511147056E-1
96 38 9.99999979562871E-1
96 42 9.999998902164601E-1
96 50 4.9999992339693533E-1
96 76 9.999999745224913E-1
96 84 9.999999397418298E-1
96 90 4.999998039991138E-1
96 92 9.99999860681491E-1
96 104 9.999999788174861E-1
96 105 9.999999872762039E-1
96 112 4.9999990486458756E-1
96 113 4.9999991486762474E-1
96 120 9.999999125615019E-1
96 121 9.999999253345945E-1
97 23 9.999999404316271E-1
97 29 9.999999717611089E-1
97 36 9.999997416340314E-1
97 48 4.9999991738636324E-1
97 52 9.999998740416023E-1
97 54 9.9999992690705E-1
97 57 9.999999825831357E-1
97 62 9.99999895740342E-1
97 102 4.999998685201969E-1
97 103 9.999998181762658E-1
97 107 9.999999921973565E-1
97 122 9.999999895448702E-1
97 130 9.999998843561627E-1
97 131 9.999998738357015E-1
98 4 4.999999693867515E-1
98 9 9.999999846219255E-1
98 10 9.999999829152619E-1
98 16 9.999999933327938E-1
98 20 9.999999852792623E-1
98 22 9.999999862262563E-1
98 46 9.999999885097897E-1
98 63 4.9999998391513734E-1
98 65 4.999998860598172E-1
98 67 9.999999920123127E-1
98 68 9.999999845212407E-1
98 77 9.999999968566274E-1
98 78 9.999999796423658E-1
98 80 4.9999998630902487E-1
98 87 4.9999998149086117E-1
98 108 9.999999967179453E-1
98 132 9.999999933217223E-1
98 133 9.999999751374569E-1
98 134 9.999999928721173E-1
99 1 4.9999983750219523E-1
99 13 9.99999886576782E-1
99 15 4.999997971835505E-1
99 25 4.999998571094749E-1
99 34 9.999998969766422E-1
99 44 4.999997937845869E-1
99 47 9.999998799891746E-1
99 71 4.9999989704572306E-1
99 100 4.99999914970839E-1
99 106 4.9999980890288054E-1
99 109 4.999999335311092E-1
99 114 4.999998304630739E-1
99 118 4.99999804281768E-1
99 126 4.999997899886422E-1
100 1 9.999999688148312E-1
100 5 4.999999272151704E-1
100 6 4.999999488299253E-1
100 15 9.99999946380151E-1
100 18 4.999999266926976E-1
100 26 4.999999429050755E-1
100 44 4.999999549642098E-1
100 47 4.9999991748546657E-1
100 71 9.999999719012368E-1
100 89 4.99999961315094E-1
100 93 4.9999993358896455E-1
100 95 9.999998970061241E-1
100 99 4.99999914970839E-1
100 109 9.999999603419532E-1
100 118 4.999999327856654E-1
100 126 4.999999613242685E-1
101 2 4.999999701375116E-1
101 6 9.999999765504256E-1
101 8 9.999999749492628E-1
101 12 9.999999905003183E-1
101 15 9.999999282608995E-1
101 55 9.999999422403063E-1
101 56 9.999999875267724E-1
101 61 9.999999903665567E-1
101 86 9.999999524652454E-1
101 90 4.999998534131188E-1
101 93 4.9999996499223087E-1
101 95 4.9999994692118127E-1
101 112 4.9999994402972864E-1
101 115 4.999999665403016E-1
101 119 9.999999925735695E-1
101 123 4.9999997086507086E-1
101 129 4.9999996900061955E-1
102 11 4.9999992552825356E-1
102 23 4.999997448235126E-1
102 29 4.999999404014722E-1
102 31 4.999999552457542E-1
102 35 9.999999501032197E-1
102 36 4.99999790527583E-1
102 48 9.999999886891632E-1
102 49 9.999999648340073E-1
102 51 4.9999995160463967E-1
102 53 4.999999572994559E-1
102 54 9.999999390585433E-1
102 57 4.999998364611952E-1
102 59 4.9999997136777186E-1
102 70 9.999999862056949E-1
102 73 4.9999993857241565E-1
102 75 4.9999995805032826E-1
102 82 4.9999996752527015E-1
102 91 9.999999575171897E-1
102 97 4.999998685201969E-1
102 107 4.999998833226366E-1
102 110 9.999999858639675E-1
102 117 9.999999723763595E-1
102 122 4.9999991316774944E-1
103 11 4.999996494658077E-1
103 23 9.999998399423652E-1
103 29 4.999998285320663E-1
103 36 4.999996496297855E-1
103 48 4.999996706590811E-1
103 52 9.999998612646861E-1
103 54 4.999997756220886E-1
103 57 9.999997900977337E-1
103 62 9.999999398405878E-1
103 97 9.999998181762658E-1
103 107 9.999998119928666E-1
103 122 9.999997445645774E-1
103 130 9.999999130083266E-1
103 131 9.999999055259758E-1
104 3 9.999998623605677E-1
104 14 9.99999932462229E-1
104 17 4.999999374074126E-1
104 19 4.9999989559285396E-1
104 27 4.999999136871276E-1
104 38 9.999999936229637E-1
104 42 4.999998882434204E-1
104 76 9.999999820400785E-1
104 84 9.999998988699342E-1
104 92 4.999998772578272E-1
104 96 9.999999788174861E-1
104 105 9.999999600046787E-1
104 111 9.999997971203202E-1
104 112 9.999998788391962E-1
104 116 4.999998701109291E-1
104 120 4.999999074295668E-1
104 121 4.9999993891959454E-1
105 14 4.9999991359047813E-1
105 17 9.999999595562001E-1
105 24 4.999999269843194E-1
105 27 4.999999294888961E-1
105 38 9.999999449221926E-1
105 42 9.999998701188659E-1
105 50 9.99999921584913E-1
105 66 4.999999351797658E-1
105 76 9.999999298468993E-1
105 84 9.999999821597282E-1
105 92 4.999999043090884E-1
105 96 9.999999872762039E-1
105 104 9.999999600046787E-1
105 113 9.999998950645286E-1
105 120 9.99999940852131E-1
105 121 9.999999735576699E-1
106 7 9.99999992631163E-1
106 13 4.999999448600408E-1
106 25 9.999999799702903E-1
106 28 9.999999659243933E-1
106 34 4.9999993726578934E-1
106 37 9.999999982355101E-1
106 41 9.999999946036262E-1
106 45 9.999999943134406E-1
106 69 9.999999963686689E-1
106 72 9.999999699793031E-1
106 85 9.999999857331127E-1
106 99 4.9999980890288054E-1
106 109 9.999998996932736E-1
106 114 9.999999957394908E-1
106 118 9.999999630141769E-1
106 125 9.999999981868684E-1
106 128 9.999999769095813E-1
107 11 4.9999987845292093E-1
107 23 9.999998933105321E-1
107 29 9.999999744865481E-1
107 36 4.999998304603797E-1
107 48 9.999998570294117E-1
107 52 9.999999189884174E-1
107 54 9.999999440977656E-1
107 57 9.999999515282042E-1
107 62 9.99999921549676E-1
107 97 9.999999921973565E-1
107 102 4.999998833226366E-1
107 103 9.999998119928666E-1
107 122 9.999999939136615E-1
107 130 9.999999188121524E-1
107 131 9.999999114855449E-1
108 9 4.9999998377911475E-1
108 10 9.999999938708262E-1
108 16 9.99999987272556E-1
108 19 4.999999634047456E-1
108 20 9.99999983523216E-1
108 22 9.999999945080972E-1
108 24 4.9999997466212526E-1
108 27 4.999999473687358E-1
108 30 4.9999997329747903E-1
108 46 9.999999966408661E-1
108 50 4.9999996089729326E-1
108 63 9.999999850200192E-1
108 66 4.999999769315484E-1
108 67 9.999999975453662E-1
108 68 9.99999971182233E-1
108 77 9.999999964234674E-1
108 78 9.999999710912222E-1
108 98 9.999999967179453E-1
108 124 4.999999459662014E-1
108 132 9.999999896635569E-1
108 133 9.999999896158174E-1
108 134 9.999999972059398E-1
109 1 9.999999340076059E-1
109 13 9.999999263115191E-1
109 25 4.999999513766151E-1
109 34 9.999999205780097E-1
109 44 4.999999595943941E-1
109 47 4.9999986709597644E-1
109 71 9.999999894203822E-1
109 72 4.9999995015816195E-1
109 85 4.999999492937602E-1
109 89 4.9999995424439764E-1
109 99 4.999999335311092E-1
109 100 9.999999603419532E-1
109 106 9.999998996932736E-1
109 114 4.999999660931008E-1
109 118 4.999999649629498E-1
109 126 4.999999542578588E-1
110 11 4.999999264958159E-1
110 29 4.999998949250455E-1
110 31 9.999999674964384E-1
110 35 9.99999956623139E-1
110 36 4.9999971547016636E-1
110 43 4.9999992979464486E-1
110 48 9.999999514117728E-1
110 49 9.999999939907733E-1
110 51 9.999999493805527E-1
110 53 9.999999680270235E-1
110 54 4.999999371124215E-1
110 59 9.999999853279453E-1
110 70 9.999999988988499E-1
110 73 4.9999994173304024E-1
110 75 9.99999969951227E-1
110 82 9.999999812003268E-1
110 87 4.999999719164094E-1
110 91 9.999999849307561E-1
110 102 9.999999858639675E-1
110 117 9.999999810284863E-1
111 3 9.999999870142E-1
111 14 9.999999436180698E-1
111 21 4.9999991837065666E-1
111 32 4.999999212341423E-1
111 38 4.99999888277767E-1
111 76 4.999998749390691E-1
111 79 9.999999570224819E-1
111 81 9.999999837846004E-1
111 86 4.9999990720276E-1
111 94 4.9999992995158865E-1
111 104 9.999997971203202E-1
111 112 4.999999272316557E-1
111 116 9.999999963417697E-1
111 136 9.999999588714392E-1
112 3 4.9999992152754574E-1
112 8 9.999999688271317E-1
112 12 4.999999418085858E-1
112 14 4.999999225982796E-1
112 32 4.9999993234238255E-1
112 38 9.99999911028814E-1
112 55 9.999998818658654E-1
112 61 4.9999995659139135E-1
112 76 9.999999224103022E-1
112 79 9.99999869632989E-1
112 81 9.999998743010372E-1
112 86 9.9999995020767E-1
112 90 4.9999982944282656E-1
112 96 4.9999990486458756E-1
112 101 4.9999994402972864E-1
112 104 9.999998788391962E-1
112 111 4.999999272316557E-1
112 116 4.999999068131961E-1
112 119 9.999999379165266E-1
112 136 9.999998641178712E-1
113 17 9.99999930269539E-1
113 24 9.999999608928943E-1
113 31 4.9999995699072824E-1
113 40 9.999999450471714E-1
113 42 4.999999228083099E-1
113 43 9.999999221848093E-1
113 50 9.999999684245121E-1
113 51 9.999999513340743E-1
113 73 4.999999227623792E-1
113 75 4.9999996511468486E-1
113 82 4.999999545962814E-1
113 84 9.999999488204049E-1
113 91 4.9999994907606515E-1
113 92 4.999998590847724E-1
113 96 4.9999991486762474E-1
113 105 9.999998950645286E-1
113 120 9.999999729756419E-1
113 121 9.999999604487904E-1
114 7 9.999999774398479E-1
114 13 4.99999947732174E-1
114 25 9.999999717631655E-1
114 28 9.999999758116597E-1
114 34 4.999999405151289E-1
114 37 9.99999992337994E-1
114 41 9.999999898488409E-1
114 45 9.999999803172238E-1
114 69 9.999999870432736E-1
114 71 9.999999336943958E-1
114 72 9.99999981280867E-1
114 85 9.999999909168128E-1
114 99 4.999998304630739E-1
114 106 9.999999957394908E-1
114 109 4.999999660931008E-1
114 118 9.999999806585511E-1
114 125 9.999999943156844E-1
114 128 9.999999850018931E-1
115 2 9.999999989948495E-1
115 8 4.99999961425922E-1
115 12 9.999999739076985E-1
115 21 9.999999743987825E-1
115 32 9.99999977821581E-1
115 33 9.999999942769966E-1
115 39 4.9999998904166054E-1
115 58 9.999999965743215E-1
115 60 9.999999834525547E-1
115 61 4.9999998493725684E-1
115 64 9.999999962284981E-1
115 79 4.9999994114188495E-1
115 81 4.999999149873962E-1
115 83 9.999999908975613E-1
115 86 4.999999855365924E-1
115 88 4.999999858919276E-1
115 94 4.999999841417038E-1
115 101 4.999999665403016E-1
115 116 4.999998548274615E-1
115 119 4.999999633946847E-1
115 127 9.999999925267891E-1
115 129 9.999999853877285E-1
115 135 4.999999867446159E-1
115 136 4.999999381561587E-1
116 3 9.999999749896786E-1
116 14 9.999999175115251E-1
116 21 4.999999193161437E-1
116 32 4.999999205313571E-1
116 38 4.999998578909939E-1
116 79 9.999999597529189E-1
116 81 9.999999839950692E-1
116 86 4.999998953881866E-1
116 94 4.999999302783355E-1
116 104 4.999998701109291E-1
116 111 9.999999963417697E-1
116 112 4.999999068131961E-1
116 115 4.999998548274615E-1
116 136 9.999999624546726E-1
117 31 4.99999969888906E-1
117 35 9.999999950194667E-1
117 36 4.9999976308853855E-1
117 43 9.999999344947195E-1
117 48 9.99999930763283E-1
117 49 9.999999843090043E-1
117 51 9.999999731331861E-1
117 54 4.99999918387233E-1
117 59 9.999999557477849E-1
117 70 9.999999890674363E-1
117 73 9.999999582910477E-1
117 75 9.999999558830467E-1
117 82 9.999999630717404E-1
117 91 9.999999930742597E-1
117 102 9.999999723763595E-1
117 110 9.999999810284863E-1
118 5 4.99999981046021E-1
118 7 4.999999655503111E-1
118 18 9.999999702900568E-1
118 25 4.999999534271025E-1
118 26 9.999999723844193E-1
118 28 9.999999933929762E-1
118 37 9.999999645761132E-1
118 41 9.999999701350121E-1
118 44 9.999999805935668E-1
118 45 4.9999996510036226E-1
118 69 4.999999775142091E-1
118 71 4.999999784986305E-1
118 72 9.999999966301324E-1
118 74 4.9999998287274544E-1
118 85 9.999999908879437E-1
118 89 4.999999804901376E-1
118 99 4.99999804281768E-1
118 100 4.999999327856654E-1
118 106 9.999999630141769E-1
118 109 4.999999649629498E-1
118 114 9.999999806585511E-1
118 125 9.999999701849445E-1
118 126 4.999999804948986E-1
118 128 9.99999994024741E-1
119 2 4.9999996459158874E-1
119 6 4.9999997137977387E-1
119 8 9.999999944683792E-1
119 12 9.999999824441033E-1
119 33 4.999999502114925E-1
119 55 9.999999525146743E-1
119 56 9.999999632803219E-1
119 61 9.999999901844466E-1
119 86 9.999999702568064E-1
119 90 4.9999986316310185E-1
119 95 4.999999277940747E-1
119 101 9.999999925735695E-1
119 112 9.999999379165266E-1
119 115 4.999999633946847E-1
119 123 4.99999953615541E-1
119 129 4.99999955879327E-1
120 17 4.9999995526168156E-1
120 24 4.999999428666412E-1
120 38 4.999999039420298E-1
120 40 9.999999626077894E-1
120 42 9.999999446809532E-1
120 43 9.999998806679492E-1
120 50 9.999999247453882E-1
120 51 4.999999340701181E-1
120 75 4.999999085890576E-1
120 76 4.9999990062698596E-1
120 84 9.999999517677821E-1
120 92 9.999998637645328E-1
120 96 9.999999125615019E-1
120 104 4.999999074295668E-1
120 105 9.99999940852131E-1
120 113 9.999999729756419E-1
120 121 9.999999552523751E-1
121 17 9.999999923157221E-1
121 19 4.999999458078653E-1
121 22 4.999999508111171E-1
121 24 9.999999517449415E-1
121 30 4.999999475583678E-1
121 38 4.9999992190253284E-1
121 40 4.9999992590438785E-1
121 42 4.999999124665828E-1
121 50 9.999999860062145E-1
121 63 4.999999547076785E-1
121 66 4.99999965088474E-1
121 76 4.99999908647778E-1
121 84 9.9999999900296E-1
121 92 4.9999985943238745E-1
121 96 9.999999253345945E-1
121 104 4.9999993891959454E-1
121 105 9.999999735576699E-1
121 113 9.999999604487904E-1
121 120 9.999999552523751E-1
121 133 4.9999994668269904E-1
122 11 4.999998848497924E-1
122 23 9.999998841718644E-1
122 29 9.999999932601762E-1
122 36 4.999998595742376E-1
122 48 9.999999035457282E-1
122 52 9.999998757385874E-1
122 54 9.999999707594073E-1
122 57 9.999999554542122E-1
122 62 9.999998720786558E-1
122 97 9.999999895448702E-1
122 102 4.9999991316774944E-1
122 103 9.999997445645774E-1
122 107 9.999999939136615E-1
122 130 9.99999870335362E-1
122 131 9.999998618262557E-1
123 1 4.999999718361344E-1
123 2 4.9999998896798237E-1
123 5 9.99999997029918E-1
123 6 4.999999844713398E-1
123 12 4.9999998454168315E-1
123 18 9.999999942491274E-1
123 26 9.99999990452618E-1
123 33 9.999999833334262E-1
123 39 9.999999841857485E-1
123 44 9.999999785583337E-1
123 56 9.999999798238938E-1
123 58 4.999999859266014E-1
123 60 4.9999998631443193E-1
123 61 4.999999757034471E-1
123 64 4.999999835386942E-1
123 74 9.999999835973197E-1
123 83 4.9999998912853644E-1
123 88 9.999999867877712E-1
123 89 9.999999811881479E-1
123 93 9.999999971351874E-1
123 101 4.9999997086507086E-1
123 119 4.99999953615541E-1
123 126 9.999999811774369E-1
123 127 4.9999998741444335E-1
123 129 9.999999960656107E-1
123 135 9.999999927180339E-1
124 10 4.99999968631204E-1
124 14 4.999999171034721E-1
124 17 4.9999995363533034E-1
124 19 9.999999945645058E-1
124 22 4.9999994473253234E-1
124 27 9.999999961290821E-1
124 30 9.999999887350849E-1
124 46 4.999999630154757E-1
124 63 4.99999974898576E-1
124 66 9.999999743293493E-1
124 67 4.9999995822173604E-1
124 77 4.999999440688423E-1
124 108 4.999999459662014E-1
124 133 4.999999729696793E-1
124 134 4.99999956312107E-1
125 7 9.999999919255106E-1
125 13 4.999999304570921E-1
125 25 9.999999662313115E-1
125 28 9.999999774524958E-1
125 34 4.9999992197220205E-1
125 37 9.999999997533726E-1
125 41 9.999999990002382E-1
125 45 9.999999911065112E-1
125 69 9.999999982412121E-1
125 72 9.999999795589833E-1
125 74 4.9999995296603417E-1
125 85 9.999999924256422E-1
125 106 9.999999981868684E-1
125 114 9.999999943156844E-1
125 118 9.999999701849445E-1
125 128 9.999999857614817E-1
126 1 9.999999883820743E-1
126 5 9.999999891742759E-1
126 6 9.999999771041149E-1
126 15 4.999999678008069E-1
126 18 9.999999879961633E-1
126 26 9.999999956480341E-1
126 44 9.999999965400135E-1
126 47 4.999997671783709E-1
126 56 9.999999681021516E-1
126 71 9.999999597943754E-1
126 89 9.99999999999998E-1
126 93 9.999999925143692E-1
126 95 4.999999250760843E-1
126 99 4.999997899886422E-1
126 100 4.999999613242685E-1
126 109 4.999999542578588E-1
126 118 4.999999804948986E-1
126 123 9.999999811774369E-1
126 129 4.9999998004809454E-1
126 135 4.999999800617059E-1
127 2 9.99999993791228E-1
127 5 4.999999817319669E-1
127 21 4.999999814546504E-1
127 32 4.999999812423805E-1
127 33 9.999999987681648E-1
127 39 9.999999949520945E-1
127 58 9.999999991501347E-1
127 60 9.999999982193587E-1
127 64 9.999999987523321E-1
127 74 9.999999769951189E-1
127 83 9.99999999799632E-1
127 88 9.999999909725488E-1
127 94 4.9999997597188944E-1
127 115 9.999999925267891E-1
127 123 4.9999998741444335E-1
127 129 9.999999902734806E-1
127 135 9.999999894961814E-1
128 7 9.999999581924444E-1
128 25 4.999999591405607E-1
128 28 9.999999988784434E-1
128 37 9.999999823052265E-1
128 41 9.999999882418256E-1
128 44 4.999999787670174E-1
128 45 9.999999544529701E-1
128 69 9.999999769002313E-1
128 71 4.99999960952763E-1
128 72 9.999999993488559E-1
128 74 4.9999998191856093E-1
128 85 9.999999989345567E-1
128 106 9.999999769095813E-1
128 114 9.999999850018931E-1
128 118 9.99999994024741E-1
128 125 9.999999857614817E-1
129 2 9.999999918856499E-1
129 5 9.999999885013628E-1
129 8 4.99999944929556E-1
129 12 4.9999998644597604E-1
129 18 4.999999926218858E-1
129 26 4.999999880242425E-1
129 33 9.999999955173275E-1
129 39 9.999999925222827E-1
129 56 4.999999855715205E-1
129 58 9.999999889275225E-1
129 60 9.999999870286982E-1
129 61 4.999999794438902E-1
129 64 9.999999858482947E-1
129 74 4.999999917764779E-1
129 83 9.999999920662873E-1
129 88 9.99999992202967E-1
129 89 4.999999800557738E-1
129 93 9.99999986879743E-1
129 101 4.9999996900061955E-1
129 115 9.999999853877285E-1
129 119 4.99999955879327E-1
129 123 9.999999960656107E-1
129 126 4.9999998004809454E-1
129 127 9.999999902734806E-1
129 135 9.999999958038279E-1
130 11 4.999998460371365E-1
130 23 9.999997667441018E-1
130 29 9.999998086691202E-1
130 48 4.999998110334886E-1
130 52 9.999999939869844E-1
130 54 4.999998837840892E-1
130 57 9.999997992957114E-1
130 62 9.999999972369934E-1
130 65 4.999998312253802E-1
130 97 9.999998843561627E-1
130 103 9.999999130083266E-1
130 107 9.999999188121524E-1
130 122 9.99999870335362E-1
130 131 9.999999996630871E-1
131 11 4.9999984944723114E-1
131 23 9.999997488125876E-1
131 29 9.999997993057912E-1
131 48 4.9999980767738506E-1
131 52 9.99999995480561E-1
131 54 4.999998803501069E-1
131 57 9.999997839548979E-1
131 62 9.999999952521312E-1
131 65 4.999998369897786E-1
131 97 9.999998738357015E-1
131 103 9.999999055259758E-1
131 107 9.999999114855449E-1
131 122 9.999998618262557E-1
131 130 9.999999996630871E-1
132 4 4.9999997180469985E-1
132 9 9.999999836610586E-1
132 10 4.999999843998328E-1
132 16 9.999999995469134E-1
132 20 9.999999982079997E-1
132 22 9.999999886673058E-1
132 24 4.99999980080505E-1
132 46 9.99999974710616E-1
132 53 4.9999998462743545E-1
132 63 4.9999997870739377E-1
132 65 4.9999988435890674E-1
132 67 9.999999774011948E-1
132 68 9.999999928187838E-1
132 77 9.999999818086714E-1
132 78 9.999999953235825E-1
132 80 9.999999923168429E-1
132 87 9.999999859624015E-1
132 98 9.999999933217223E-1
132 108 9.999999896635569E-1
132 133 4.9999998136054635E-1
132 134 9.999999772562685E-1
133 10 9.999999989191886E-1
133 17 4.999999678809231E-1
133 19 9.99999971111433E-1
133 20 4.9999997878699637E-1
133 22 9.999999891892837E-1
133 27 4.99999975105712E-1
133 30 9.999999829192208E-1
133 46 9.999999968168194E-1
133 50 4.999999696937329E-1
133 63 9.999999992656865E-1
133 66 9.999999867816266E-1
133 67 9.999999936300241E-1
133 77 9.999999826072897E-1
133 98 9.999999751374569E-1
133 108 9.999999896158174E-1
133 121 4.9999994668269904E-1
133 124 4.999999729696793E-1
133 132 4.9999998136054635E-1
133 134 9.999999916250748E-1
134 9 9.999999583626797E-1
134 10 9.999999965275838E-1
134 16 9.999999748640319E-1
134 19 4.999999699653308E-1
134 20 4.9999998368324733E-1
134 22 9.99999986279086E-1
134 27 4.9999995496033867E-1
134 30 4.999999787061414E-1
134 46 9.999999987465062E-1
134 63 9.999999860891017E-1
134 66 9.999999581020204E-1
134 67 9.99999999847248E-1
134 77 9.999999982658051E-1
134 98 9.999999928721173E-1
134 108 9.999999972059398E-1
134 124 4.99999956312107E-1
134 132 9.999999772562685E-1
134 133 9.999999916250748E-1
135 2 4.9999999061685424E-1
135 5 9.999999908495281E-1
135 18 9.999999907103134E-1
135 26 4.999999901886899E-1
135 33 9.999999920528219E-1
135 39 9.999999980346681E-1
135 44 4.999999829599106E-1
135 58 9.999999846118307E-1
135 60 9.99999991694186E-1
135 64 9.999999817053682E-1
135 74 9.999999957967531E-1
135 83 9.999999921760766E-1
135 88 9.999999991223153E-1
135 89 4.9999998006754165E-1
135 93 9.999999865400171E-1
135 115 4.999999867446159E-1
135 123 9.999999927180339E-1
135 126 4.999999800617059E-1
135 127 9.999999894961814E-1
135 129 9.999999958038279E-1
136 2 4.9999992652521574E-1
136 3 9.999999025075669E-1
136 14 4.9999991143220773E-1
136 21 9.999999566753517E-1
136 32 9.999999572117204E-1
136 58 4.99999928974941E-1
136 64 4.999999331354308E-1
136 79 9.999999999053438E-1
136 81 9.999999942513705E-1
136 86 4.999999538579148E-1
136 94 9.999999674336466E-1
136 111 9.999999588714392E-1
136 112 9.999998641178712E-1
136 115 4.999999381561587E-1
136 116 9.999999624546726E-1
