%%MatrixMarket matrix coordinate real general
%
136 136 1052
1 6 9.999999734005577E-1
1 15 4.9999998414886954E-1
1 26 4.999999850661803E-1
1 44 4.9999998910998833E-1
1 71 9.999999747063475E-1
1 89 9.9999998837694E-1
1 95 4.9999995155267907E-1
1 100 4.999999844074156E-1
1 109 4.9999996700380295E-1
1 126 9.999999883820743E-1
2 12 4.999999891778316E-1
2 21 4.9999998182327854E-1
2 32 4.999999837187285E-1
2 33 9.99999996852886E-1
2 58 9.999999966972399E-1
2 64 9.999999955470349E-1
2 83 4.9999999652113525E-1
2 115 9.999999989948495E-1
2 127 4.99999996895614E-1
3 14 9.999999831340557E-1
3 79 4.999999502096414E-1
3 81 9.999999440486874E-1
3 111 9.999999870142E-1
3 116 9.999999749896786E-1
3 136 4.9999995125378344E-1
4 9 9.999999847644299E-1
4 11 9.99999956070347E-1
4 16 4.999999766140159E-1
4 65 4.999999699903509E-1
4 68 4.999999880653291E-1
4 78 4.999999784579002E-1
4 87 4.99999978828604E-1
5 18 9.99999999418971E-1
5 26 9.999999976970625E-1
5 44 9.999999906628364E-1
5 74 4.9999999419326774E-1
5 89 4.999999945901388E-1
5 93 9.999999993129313E-1
5 123 9.99999997029918E-1
5 126 4.9999999458713795E-1
5 135 4.9999999542476403E-1
6 1 9.999999734005577E-1
6 15 4.9999998574267335E-1
6 56 9.999999947058792E-1
6 89 4.9999998855670824E-1
6 93 4.99999986134457E-1
6 95 4.999999606199534E-1
6 101 9.999999765504256E-1
6 126 4.9999998855205746E-1
7 25 4.999999862168673E-1
7 37 9.999999944832826E-1
7 41 9.999999906441973E-1
7 45 9.999999990110273E-1
7 69 9.99999997241432E-1
7 106 4.999999963155815E-1
7 125 4.999999959627553E-1
8 12 4.999999845568968E-1
8 55 4.9999996928920964E-1
8 61 9.999999828354553E-1
8 86 9.999999811411759E-1
8 101 9.999999749492628E-1
8 112 9.999999688271317E-1
8 119 9.999999944683792E-1
9 4 9.999999847644299E-1
9 11 4.999999446232981E-1
9 16 4.9999999424650254E-1
9 65 4.999999358154595E-1
9 68 9.999999955793353E-1
9 78 4.999999917390134E-1
9 98 4.9999999231096276E-1
9 132 4.999999918305293E-1
10 22 4.999999946832441E-1
10 46 9.999999993914259E-1
10 63 9.99999996422342E-1
10 66 4.999999893290192E-1
10 67 9.999999977359015E-1
10 77 4.999999950130501E-1
10 108 4.999999969354131E-1
10 133 9.999999989191886E-1
10 134 9.999999965275838E-1
11 4 9.99999956070347E-1
11 9 4.999999446232981E-1
11 48 4.999999295941576E-1
11 65 9.99999982197415E-1
11 68 4.999999377757362E-1
11 87 4.9999993136699433E-1
12 2 4.999999891778316E-1
12 8 4.999999845568968E-1
12 56 9.99999989319263E-1
12 61 9.999999978370672E-1
12 86 4.9999998669122697E-1
12 101 9.999999905003183E-1
12 115 4.9999998695384923E-1
12 119 9.999999824441033E-1
13 25 4.999999772027301E-1
13 34 9.999999995097713E-1
13 99 9.99999886576782E-1
13 106 4.999999448600408E-1
13 109 9.999999263115191E-1
13 114 4.99999947732174E-1
14 3 9.999999831340557E-1
14 38 9.999999021149463E-1
14 76 4.999999358386431E-1
14 81 4.9999993950750055E-1
14 104 9.99999932462229E-1
14 111 9.999999436180698E-1
14 116 9.999999175115251E-1
15 1 4.9999998414886954E-1
15 6 4.9999998574267335E-1
15 47 4.99999855057994E-1
15 56 4.9999997190798506E-1
15 89 4.999999678015134E-1
15 90 4.9999985799928276E-1
15 95 9.999999818752137E-1
15 100 9.99999946380151E-1
16 4 4.999999766140159E-1
16 9 4.9999999424650254E-1
16 20 9.99999996771857E-1
16 68 9.999999958602648E-1
16 78 9.999999962673947E-1
16 80 9.999999929538151E-1
16 87 4.999999938202888E-1
16 98 9.999999933327938E-1
16 132 9.999999995469134E-1
17 24 4.999999773212146E-1
17 50 9.999999860867448E-1
17 66 4.9999998405418644E-1
17 84 9.999999920901247E-1
17 105 9.999999595562001E-1
17 121 9.999999923157221E-1
18 5 9.99999999418971E-1
18 26 9.999999979697746E-1
18 44 9.999999921964156E-1
18 74 9.999999912856709E-1
18 93 9.999999977746213E-1
18 123 9.999999942491274E-1
19 27 9.99999996964686E-1
19 30 9.999999984442767E-1
19 63 4.9999998767279985E-1
19 66 9.999999925186446E-1
19 124 9.999999945645058E-1
19 133 4.999999855557165E-1
20 16 9.99999996771857E-1
20 22 4.999999943203825E-1
20 24 4.9999998652851607E-1
20 68 4.9999999436460196E-1
20 78 9.999999962735043E-1
20 80 9.999999952907567E-1
20 87 9.99999989478091E-1
20 132 9.999999982079997E-1
21 2 4.9999998182327854E-1
21 32 9.999999992325975E-1
21 58 4.999999852276588E-1
21 64 4.9999998724634614E-1
21 79 4.9999997978141414E-1
21 94 9.999999990632454E-1
21 115 4.9999998719939126E-1
22 10 4.999999946832441E-1
22 20 4.999999943203825E-1
22 24 4.999999883353136E-1
22 46 4.999999950492766E-1
22 50 4.999999785730815E-1
22 63 4.999999941202082E-1
22 108 9.999999945080972E-1
22 132 4.999999943336529E-1
22 133 4.9999999459464184E-1
23 29 4.999999270929648E-1
23 36 4.9999990315958887E-1
23 57 9.999999796618682E-1
23 97 9.999999404316271E-1
23 103 9.999998399423652E-1
23 107 4.9999994665526604E-1
23 122 4.999999420859322E-1
24 17 4.999999773212146E-1
24 20 4.9999998652851607E-1
24 22 4.999999883353136E-1
24 31 4.999999806821365E-1
24 50 9.999999894346674E-1
24 113 9.999999608928943E-1
24 132 4.99999980080505E-1
25 7 4.999999862168673E-1
25 13 4.999999772027301E-1
25 34 4.9999997238888355E-1
25 37 4.999999839391069E-1
25 45 4.999999909409188E-1
25 106 4.9999998998514517E-1
25 114 4.9999998588158273E-1
25 125 4.9999998311565574E-1
26 1 4.999999850661803E-1
26 5 9.999999976970625E-1
26 18 9.999999979697746E-1
26 44 9.999999975938796E-1
26 89 9.999999956500485E-1
26 93 9.999999978330303E-1
26 123 4.99999995226309E-1
26 126 9.999999956480341E-1
27 19 9.99999996964686E-1
27 30 9.999999911709667E-1
27 63 4.999999783682436E-1
27 66 9.999999840882015E-1
27 124 9.999999961290821E-1
27 133 4.99999975105712E-1
28 41 4.99999990816519E-1
28 72 9.999999993211266E-1
28 85 9.999999957434337E-1
28 118 9.999999933929762E-1
28 125 4.999999887262479E-1
28 128 9.999999988784434E-1
29 23 4.999999270929648E-1
29 36 4.999998787238056E-1
29 48 9.99999942819059E-1
29 54 9.999999879280057E-1
29 57 9.999999416973996E-1
29 97 9.999999717611089E-1
29 107 9.999999744865481E-1
29 122 9.999999932601762E-1
30 19 9.999999984442767E-1
30 27 9.999999911709667E-1
30 63 4.999999929289684E-1
30 66 9.99999995975956E-1
30 124 9.999999887350849E-1
30 133 4.999999914596104E-1
31 24 4.999999806821365E-1
31 49 4.999999920601136E-1
31 53 9.999999953193229E-1
31 59 9.999999960323406E-1
31 75 9.999999975191483E-1
31 82 9.999999971565978E-1
31 87 4.999999932323248E-1
32 2 4.999999837187285E-1
32 21 9.999999992325975E-1
32 58 4.9999998553197117E-1
32 64 4.9999998732965995E-1
32 79 4.9999998020836384E-1
32 86 4.999999831230425E-1
32 94 9.999999991404117E-1
32 115 4.999999889107905E-1
32 136 4.999999786058602E-1
33 2 9.99999996852886E-1
33 39 4.999999973218803E-1
33 58 9.999999984739959E-1
33 60 4.999999977345761E-1
33 64 9.999999972429262E-1
33 83 9.999999989852824E-1
33 115 4.999999971384983E-1
33 127 9.999999987681648E-1
33 129 9.999999955173275E-1
34 13 9.999999995097713E-1
34 25 4.9999997238888355E-1
34 99 9.999998969766422E-1
34 106 4.9999993726578934E-1
34 109 4.9999996028900484E-1
34 114 4.999999405151289E-1
35 43 4.999999795234941E-1
35 49 4.9999998253080724E-1
35 51 9.999999715392817E-1
35 70 4.999999846691699E-1
35 73 9.999999820456085E-1
35 91 4.9999999148646707E-1
35 117 9.999999950194667E-1
36 23 4.9999990315958887E-1
36 29 4.999998787238056E-1
36 54 4.999998442434262E-1
36 57 4.9999991929865073E-1
36 97 4.999998708170157E-1
36 122 4.999998595742376E-1
37 7 9.999999944832826E-1
37 25 4.999999839391069E-1
37 41 9.999999988163545E-1
37 45 9.999999935236464E-1
37 69 9.999999992742834E-1
37 106 9.999999982355101E-1
37 114 4.99999996168997E-1
37 125 9.999999997533726E-1
38 14 9.999999021149463E-1
38 76 9.999999970437727E-1
38 96 9.99999979562871E-1
38 104 9.999999936229637E-1
38 105 9.999999449221926E-1
38 112 9.99999911028814E-1
39 33 4.999999973218803E-1
39 60 9.999999976617131E-1
39 74 4.999999967456001E-1
39 83 9.999999967018994E-1
39 88 9.999999993858995E-1
39 127 9.999999949520945E-1
39 129 4.9999999626114133E-1
39 135 9.999999980346681E-1
40 42 9.999999273700625E-1
40 43 9.999999606177742E-1
40 51 4.999999517110734E-1
40 73 4.999999471942073E-1
40 92 4.999999178337894E-1
40 113 4.999999725235857E-1
40 120 9.999999626077894E-1
41 7 9.999999906441973E-1
41 28 4.99999990816519E-1
41 37 9.999999988163545E-1
41 45 4.9999999392139866E-1
41 69 9.999999980314387E-1
41 72 4.9999999106455634E-1
41 85 9.999999937340756E-1
41 106 9.999999946036262E-1
41 114 4.9999999492442043E-1
41 125 9.999999990002382E-1
41 128 4.999999941209128E-1
42 40 9.999999273700625E-1
42 90 4.9999986756536624E-1
42 92 9.999999799232063E-1
42 96 4.9999994510823004E-1
42 105 4.9999993505943297E-1
42 113 4.999999228083099E-1
42 120 9.999999446809532E-1
43 35 4.999999795234941E-1
43 40 9.999999606177742E-1
43 51 4.99999982733865E-1
43 73 9.999999827546295E-1
43 91 4.9999996723279777E-1
43 117 4.9999996724735973E-1
44 1 4.9999998910998833E-1
44 5 9.999999906628364E-1
44 18 9.999999921964156E-1
44 26 9.999999975938796E-1
44 71 4.9999998224584125E-1
44 89 9.999999965377324E-1
44 93 4.9999999559011993E-1
44 118 4.999999902967834E-1
44 126 9.999999965400135E-1
45 7 9.999999990110273E-1
45 25 4.999999909409188E-1
45 37 9.999999935236464E-1
45 41 4.9999999392139866E-1
45 69 9.999999954388716E-1
45 106 9.999999943134406E-1
45 125 4.999999955532556E-1
46 10 9.999999993914259E-1
46 22 4.999999950492766E-1
46 63 4.999999965891402E-1
46 67 9.999999994512477E-1
46 77 9.999999942996369E-1
46 108 9.999999966408661E-1
46 133 9.999999968168194E-1
46 134 9.999999987465062E-1
47 15 4.99999855057994E-1
47 71 4.99999848853274E-1
47 95 4.999998637945052E-1
47 99 9.999998799891746E-1
47 100 4.9999991748546657E-1
47 109 4.9999986709597644E-1
48 11 4.999999295941576E-1
48 29 9.99999942819059E-1
48 54 9.999999799207521E-1
48 70 4.9999997506786253E-1
48 102 9.999999886891632E-1
48 110 4.999999757058864E-1
48 117 4.999999653816415E-1
48 122 4.999999517728641E-1
49 31 4.999999920601136E-1
49 35 4.9999998253080724E-1
49 51 4.9999998829245196E-1
49 59 9.999999927534339E-1
49 70 9.999999950548668E-1
49 75 9.999999892135777E-1
49 82 9.999999945334604E-1
49 91 9.999999958003002E-1
49 102 4.9999998241700366E-1
49 110 9.999999939907733E-1
49 117 4.9999999215450214E-1
50 17 9.999999860867448E-1
50 22 4.999999785730815E-1
50 24 9.999999894346674E-1
50 84 9.999999785393E-1
50 113 9.999999684245121E-1
50 121 9.999999860062145E-1
51 35 9.999999715392817E-1
51 40 4.999999517110734E-1
51 43 4.99999982733865E-1
51 49 4.9999998829245196E-1
51 73 4.999999732229635E-1
51 75 4.9999999053069405E-1
51 82 4.99999988107248E-1
51 91 9.999999887546904E-1
51 113 4.9999997566703713E-1
51 117 9.999999731331861E-1
52 62 9.999999834991948E-1
52 97 4.9999993702080114E-1
52 103 4.9999993063234305E-1
52 107 4.999999594942087E-1
52 122 4.999999378692937E-1
52 130 9.999999939869844E-1
52 131 9.99999995480561E-1
53 31 9.999999953193229E-1
53 59 9.999999954640038E-1
53 75 4.999999934145689E-1
53 78 4.999999939148987E-1
53 80 4.999999961408488E-1
53 82 9.999999901706681E-1
53 87 9.999999960715924E-1
54 29 9.999999879280057E-1
54 36 4.999998442434262E-1
54 48 9.999999799207521E-1
54 57 4.999999383536749E-1
54 97 9.9999992690705E-1
54 102 4.9999996952927167E-1
54 107 9.999999440977656E-1
54 122 9.999999707594073E-1
55 8 4.9999996928920964E-1
55 61 4.9999995134815883E-1
55 90 9.99999906447594E-1
55 95 9.999999176911172E-1
55 101 4.9999997112015315E-1
55 119 4.9999997625733716E-1
56 6 9.999999947058792E-1
56 12 9.99999989319263E-1
56 15 4.9999997190798506E-1
56 61 9.999999793232438E-1
56 93 4.999999879142365E-1
56 101 9.999999875267724E-1
56 119 4.9999998164016096E-1
56 123 4.999999899119469E-1
57 23 9.999999796618682E-1
57 29 9.999999416973996E-1
57 36 4.9999991929865073E-1
57 54 4.999999383536749E-1
57 97 9.999999825831357E-1
57 107 9.999999515282042E-1
57 122 9.999999554542122E-1
58 2 9.999999966972399E-1
58 21 4.999999852276588E-1
58 32 4.9999998553197117E-1
58 33 9.999999984739959E-1
58 60 4.9999999749694896E-1
58 64 9.999999998094772E-1
58 83 9.999999983231466E-1
58 115 9.999999965743215E-1
58 127 9.999999991501347E-1
59 31 9.999999960323406E-1
59 49 9.999999927534339E-1
59 53 9.999999954640038E-1
59 70 4.9999999077594276E-1
59 75 9.999999935130046E-1
59 82 9.999999977775336E-1
59 110 9.999999853279453E-1
60 33 4.999999977345761E-1
60 39 9.999999976617131E-1
60 58 4.9999999749694896E-1
60 74 4.9999999227974756E-1
60 83 9.999999986924935E-1
60 88 9.999999947711811E-1
60 127 9.999999982193587E-1
61 8 9.999999828354553E-1
61 12 9.999999978370672E-1
61 55 4.9999995134815883E-1
61 56 9.999999793232438E-1
61 86 9.999999838043355E-1
61 101 9.999999903665567E-1
61 112 4.9999995659139135E-1
61 119 9.999999901844466E-1
62 52 9.999999834991948E-1
62 97 4.99999947870171E-1
62 103 9.999999398405878E-1
62 107 9.99999921549676E-1
62 130 9.999999972369934E-1
62 131 9.999999952521312E-1
63 10 9.99999996422342E-1
63 19 4.9999998767279985E-1
63 22 4.999999941202082E-1
63 27 4.999999783682436E-1
63 30 4.999999929289684E-1
63 46 4.999999965891402E-1
63 66 9.99999991458211E-1
63 67 4.999999943814904E-1
63 124 4.99999974898576E-1
63 133 9.999999992656865E-1
64 2 9.999999955470349E-1
64 21 4.9999998724634614E-1
64 32 4.9999998732965995E-1
64 33 9.999999972429262E-1
64 58 9.999999998094772E-1
64 83 9.99999997603198E-1
64 94 4.999999828199041E-1
64 115 9.999999962284981E-1
64 127 9.999999987523321E-1
65 4 4.999999699903509E-1
65 9 4.999999358154595E-1
65 11 9.99999982197415E-1
65 68 4.9999992029757573E-1
65 78 4.999998979514074E-1
65 87 4.999999016855314E-1
66 10 4.999999893290192E-1
66 17 4.9999998405418644E-1
66 19 9.999999925186446E-1
66 27 9.999999840882015E-1
66 30 9.99999995975956E-1
66 63 9.99999991458211E-1
66 124 4.9999998716467464E-1
66 133 4.999999933908133E-1
67 10 9.999999977359015E-1
67 46 9.999999994512477E-1
67 63 4.999999943814904E-1
67 77 9.999999972658756E-1
67 98 4.9999999600615636E-1
67 108 9.999999975453662E-1
67 133 9.999999936300241E-1
67 134 9.99999999847248E-1
68 4 4.999999880653291E-1
68 9 9.999999955793353E-1
68 11 4.999999377757362E-1
68 16 9.999999958602648E-1
68 20 4.9999999436460196E-1
68 65 4.9999992029757573E-1
68 78 9.999999960549493E-1
68 80 9.999999928681339E-1
68 87 9.99999991520469E-1
68 132 9.999999928187838E-1
69 7 9.99999997241432E-1
69 37 9.999999992742834E-1
69 41 9.999999980314387E-1
69 45 9.999999954388716E-1
69 106 9.999999963686689E-1
69 114 4.999999935216368E-1
69 125 9.999999982412121E-1
70 35 4.999999846691699E-1
70 48 4.9999997506786253E-1
70 49 9.999999950548668E-1
70 59 4.9999999077594276E-1
70 73 4.9999995246705636E-1
70 91 9.999999902850872E-1
70 102 9.999999862056949E-1
70 110 9.999999988988499E-1
70 117 9.999999890674363E-1
71 1 9.999999747063475E-1
71 44 4.9999998224584125E-1
71 47 4.99999848853274E-1
71 89 4.9999997988829764E-1
71 99 4.9999989704572306E-1
71 100 9.999999719012368E-1
71 109 9.999999894203822E-1
71 126 4.999999798971877E-1
72 28 9.999999993211266E-1
72 41 4.9999999106455634E-1
72 85 9.999999968615821E-1
72 114 4.999999906404335E-1
72 118 9.999999966301324E-1
72 128 9.999999993488559E-1
73 35 9.999999820456085E-1
73 40 4.999999471942073E-1
73 43 9.999999827546295E-1
73 51 4.999999732229635E-1
73 70 4.9999995246705636E-1
73 91 4.999999695095842E-1
73 117 4.9999997914552385E-1
74 5 4.9999999419326774E-1
74 18 9.999999912856709E-1
74 39 4.999999967456001E-1
74 60 4.9999999227974756E-1
74 88 9.999999967551445E-1
74 135 9.999999957967531E-1
75 31 9.999999975191483E-1
75 49 9.999999892135777E-1
75 51 4.9999999053069405E-1
75 53 4.999999934145689E-1
75 59 9.999999935130046E-1
75 82 9.999999985329923E-1
75 91 4.9999999184129934E-1
76 14 4.999999358386431E-1
76 38 9.999999970437727E-1
76 92 4.999999180069784E-1
76 96 9.999999745224913E-1
76 104 9.999999820400785E-1
76 105 4.9999996492344967E-1
76 112 9.999999224103022E-1
77 10 4.999999950130501E-1
77 46 9.999999942996369E-1
77 67 9.999999972658756E-1
77 98 9.999999968566274E-1
77 108 9.999999964234674E-1
77 134 9.999999982658051E-1
78 4 4.999999784579002E-1
78 9 4.999999917390134E-1
78 16 9.999999962673947E-1
78 20 9.999999962735043E-1
78 53 4.999999939148987E-1
78 65 4.999998979514074E-1
78 68 9.999999960549493E-1
78 80 9.999999993800586E-1
78 87 9.999999974569908E-1
78 132 9.999999953235825E-1
79 3 4.999999502096414E-1
79 21 4.9999997978141414E-1
79 32 4.9999998020836384E-1
79 81 9.99999993604353E-1
79 94 9.999999700785399E-1
79 111 4.9999997851124095E-1
79 116 9.999999597529189E-1
79 136 9.999999999053438E-1
80 16 9.999999929538151E-1
80 20 9.999999952907567E-1
80 53 4.999999961408488E-1
80 68 9.999999928681339E-1
80 78 9.999999993800586E-1
80 87 9.999999988470527E-1
80 132 9.999999923168429E-1
81 3 9.999999440486874E-1
81 14 4.9999993950750055E-1
81 79 9.99999993604353E-1
81 94 4.999999689091022E-1
81 111 9.999999837846004E-1
81 116 9.999999839950692E-1
81 136 9.999999942513705E-1
82 31 9.999999971565978E-1
82 49 9.999999945334604E-1
82 51 4.99999988107248E-1
82 53 9.999999901706681E-1
82 59 9.999999977775336E-1
82 75 9.999999985329923E-1
82 91 9.999999868436875E-1
82 110 4.999999906001634E-1
83 2 4.9999999652113525E-1
83 33 9.999999989852824E-1
83 39 9.999999967018994E-1
83 58 9.999999983231466E-1
83 60 9.999999986924935E-1
83 64 9.99999997603198E-1
83 88 4.999999967114952E-1
83 115 4.9999999544878065E-1
83 127 9.99999999799632E-1
83 129 4.9999999603314366E-1
83 135 4.999999960880383E-1
84 17 9.999999920901247E-1
84 50 9.999999785393E-1
84 96 4.999999698709149E-1
84 104 4.999999494349671E-1
84 105 9.999999821597282E-1
84 113 9.999999488204049E-1
84 120 9.999999517677821E-1
84 121 9.9999999900296E-1
85 28 9.999999957434337E-1
85 41 9.999999937340756E-1
85 72 9.999999968615821E-1
85 114 9.999999909168128E-1
85 118 4.9999999544397183E-1
85 125 9.999999924256422E-1
85 128 9.999999989345567E-1
86 8 9.999999811411759E-1
86 12 4.9999998669122697E-1
86 32 4.999999831230425E-1
86 61 9.999999838043355E-1
86 112 4.99999975103835E-1
86 115 4.999999855365924E-1
86 119 9.999999702568064E-1
87 4 4.99999978828604E-1
87 11 4.9999993136699433E-1
87 16 4.999999938202888E-1
87 20 9.99999989478091E-1
87 31 4.999999932323248E-1
87 53 9.999999960715924E-1
87 65 4.999999016855314E-1
87 68 9.99999991520469E-1
87 78 9.999999974569908E-1
87 80 9.999999988470527E-1
88 39 9.999999993858995E-1
88 60 9.999999947711811E-1
88 74 9.999999967551445E-1
88 83 4.999999967114952E-1
88 129 9.99999992202967E-1
88 135 9.999999991223153E-1
89 1 9.9999998837694E-1
89 5 4.999999945901388E-1
89 6 4.9999998855670824E-1
89 15 4.999999678015134E-1
89 26 9.999999956500485E-1
89 44 9.999999965377324E-1
89 71 4.9999997988829764E-1
89 93 9.99999992520454E-1
89 100 4.99999961315094E-1
89 126 9.99999999999998E-1
90 15 4.9999985799928276E-1
90 42 4.9999986756536624E-1
90 55 9.99999906447594E-1
90 92 9.999998607170565E-1
90 95 4.999999135757503E-1
90 119 4.9999986316310185E-1
91 35 4.9999999148646707E-1
91 43 4.9999996723279777E-1
91 49 9.999999958003002E-1
91 51 9.999999887546904E-1
91 70 9.999999902850872E-1
91 73 4.999999695095842E-1
91 75 4.9999999184129934E-1
91 82 9.999999868436875E-1
91 102 4.9999997875859487E-1
91 110 9.999999849307561E-1
91 117 9.999999930742597E-1
92 40 4.999999178337894E-1
92 42 9.999999799232063E-1
92 76 4.999999180069784E-1
92 90 9.999998607170565E-1
92 96 4.999999303407455E-1
92 120 4.999999318822664E-1
93 5 9.999999993129313E-1
93 6 4.99999986134457E-1
93 18 9.999999977746213E-1
93 26 9.999999978330303E-1
93 44 4.9999999559011993E-1
93 56 4.999999879142365E-1
93 89 9.99999992520454E-1
93 123 9.999999971351874E-1
93 126 9.999999925143692E-1
94 21 9.999999990632454E-1
94 32 9.999999991404117E-1
94 64 4.999999828199041E-1
94 79 9.999999700785399E-1
94 81 4.999999689091022E-1
94 115 4.999999841417038E-1
94 136 9.999999674336466E-1
95 1 4.9999995155267907E-1
95 6 4.999999606199534E-1
95 15 9.999999818752137E-1
95 47 4.999998637945052E-1
95 55 9.999999176911172E-1
95 90 4.999999135757503E-1
95 100 4.9999994850306206E-1
95 101 4.9999994692118127E-1
96 38 9.99999979562871E-1
96 42 4.9999994510823004E-1
96 76 9.999999745224913E-1
96 84 4.999999698709149E-1
96 92 4.999999303407455E-1
96 104 9.999999788174861E-1
96 105 9.999999872762039E-1
96 121 4.9999996266729724E-1
97 23 9.999999404316271E-1
97 29 9.999999717611089E-1
97 36 4.999998708170157E-1
97 52 4.9999993702080114E-1
97 54 9.9999992690705E-1
97 57 9.999999825831357E-1
97 62 4.99999947870171E-1
97 103 4.999999090881329E-1
97 107 9.999999921973565E-1
97 122 9.999999895448702E-1
97 130 4.9999994217808136E-1
97 131 4.999999369178508E-1
98 9 4.9999999231096276E-1
98 16 9.999999933327938E-1
98 67 4.9999999600615636E-1
98 77 9.999999968566274E-1
98 108 9.999999967179453E-1
98 132 9.999999933217223E-1
98 134 9.999999928721173E-1
99 13 9.99999886576782E-1
99 34 9.999998969766422E-1
99 47 9.999998799891746E-1
99 71 4.9999989704572306E-1
99 100 4.99999914970839E-1
99 109 4.999999335311092E-1
100 1 4.999999844074156E-1
100 15 9.99999946380151E-1
100 47 4.9999991748546657E-1
100 71 9.999999719012368E-1
100 89 4.99999961315094E-1
100 95 4.9999994850306206E-1
100 99 4.99999914970839E-1
100 109 9.999999603419532E-1
100 126 4.999999613242685E-1
101 6 9.999999765504256E-1
101 8 9.999999749492628E-1
101 12 9.999999905003183E-1
101 55 4.9999997112015315E-1
101 56 9.999999875267724E-1
101 61 9.999999903665567E-1
101 95 4.9999994692118127E-1
101 119 9.999999925735695E-1
102 48 9.999999886891632E-1
102 49 4.9999998241700366E-1
102 54 4.9999996952927167E-1
102 70 9.999999862056949E-1
102 91 4.9999997875859487E-1
102 110 9.999999858639675E-1
102 117 4.9999998618817976E-1
103 23 9.999998399423652E-1
103 52 4.9999993063234305E-1
103 62 9.999999398405878E-1
103 97 4.999999090881329E-1
103 130 9.999999130083266E-1
103 131 9.999999055259758E-1
104 14 9.99999932462229E-1
104 38 9.999999936229637E-1
104 76 9.999999820400785E-1
104 84 4.999999494349671E-1
104 96 9.999999788174861E-1
104 105 9.999999600046787E-1
105 17 9.999999595562001E-1
105 38 9.999999449221926E-1
105 42 4.9999993505943297E-1
105 76 4.9999996492344967E-1
105 84 9.999999821597282E-1
105 96 9.999999872762039E-1
105 104 9.999999600046787E-1
105 120 4.999999704260655E-1
105 121 9.999999735576699E-1
106 7 4.999999963155815E-1
106 13 4.999999448600408E-1
106 25 4.9999998998514517E-1
106 34 4.9999993726578934E-1
106 37 9.999999982355101E-1
106 41 9.999999946036262E-1
106 45 9.999999943134406E-1
106 69 9.999999963686689E-1
106 114 9.999999957394908E-1
106 125 9.999999981868684E-1
107 23 4.9999994665526604E-1
107 29 9.999999744865481E-1
107 52 4.999999594942087E-1
107 54 9.999999440977656E-1
107 57 9.999999515282042E-1
107 62 9.99999921549676E-1
107 97 9.999999921973565E-1
107 122 9.999999939136615E-1
107 130 4.999999594060762E-1
107 131 4.9999995574277245E-1
108 10 4.999999969354131E-1
108 22 9.999999945080972E-1
108 46 9.999999966408661E-1
108 67 9.999999975453662E-1
108 77 9.999999964234674E-1
108 98 9.999999967179453E-1
108 133 4.999999948079087E-1
108 134 9.999999972059398E-1
109 1 4.9999996700380295E-1
109 13 9.999999263115191E-1
109 34 4.9999996028900484E-1
109 47 4.9999986709597644E-1
109 71 9.999999894203822E-1
109 99 4.999999335311092E-1
109 100 9.999999603419532E-1
109 114 4.999999660931008E-1
109 118 4.999999649629498E-1
110 48 4.999999757058864E-1
110 49 9.999999939907733E-1
110 59 9.999999853279453E-1
110 70 9.999999988988499E-1
110 82 4.999999906001634E-1
110 91 9.999999849307561E-1
110 102 9.999999858639675E-1
110 117 4.9999999051424315E-1
111 3 9.999999870142E-1
111 14 9.999999436180698E-1
111 79 4.9999997851124095E-1
111 81 9.999999837846004E-1
111 116 9.999999963417697E-1
111 136 9.999999588714392E-1
112 8 9.999999688271317E-1
112 38 9.99999911028814E-1
112 61 4.9999995659139135E-1
112 76 9.999999224103022E-1
112 86 4.99999975103835E-1
112 119 4.999999689582633E-1
113 24 9.999999608928943E-1
113 40 4.999999725235857E-1
113 42 4.999999228083099E-1
113 50 9.999999684245121E-1
113 51 4.9999997566703713E-1
113 84 9.999999488204049E-1
113 120 9.999999729756419E-1
113 121 9.999999604487904E-1
114 13 4.99999947732174E-1
114 25 4.9999998588158273E-1
114 34 4.999999405151289E-1
114 37 4.99999996168997E-1
114 41 4.9999999492442043E-1
114 69 4.999999935216368E-1
114 72 4.999999906404335E-1
114 85 9.999999909168128E-1
114 106 9.999999957394908E-1
114 109 4.999999660931008E-1
114 118 4.9999999032927556E-1
114 125 9.999999943156844E-1
115 2 9.999999989948495E-1
115 12 4.9999998695384923E-1
115 21 4.9999998719939126E-1
115 32 4.999999889107905E-1
115 33 4.999999971384983E-1
115 58 9.999999965743215E-1
115 64 9.999999962284981E-1
115 83 4.9999999544878065E-1
115 86 4.999999855365924E-1
115 94 4.999999841417038E-1
115 127 4.9999999626339453E-1
116 3 9.999999749896786E-1
116 14 9.999999175115251E-1
116 79 9.999999597529189E-1
116 81 9.999999839950692E-1
116 111 9.999999963417697E-1
116 136 9.999999624546726E-1
117 35 9.999999950194667E-1
117 43 4.9999996724735973E-1
117 48 4.999999653816415E-1
117 49 4.9999999215450214E-1
117 51 9.999999731331861E-1
117 70 9.999999890674363E-1
117 73 4.9999997914552385E-1
117 91 9.999999930742597E-1
117 102 4.9999998618817976E-1
117 110 4.9999999051424315E-1
118 28 9.999999933929762E-1
118 44 4.999999902967834E-1
118 72 9.999999966301324E-1
118 85 4.9999999544397183E-1
118 109 4.999999649629498E-1
118 114 4.9999999032927556E-1
118 128 9.99999994024741E-1
119 8 9.999999944683792E-1
119 12 9.999999824441033E-1
119 55 4.9999997625733716E-1
119 56 4.9999998164016096E-1
119 61 9.999999901844466E-1
119 86 9.999999702568064E-1
119 90 4.9999986316310185E-1
119 101 9.999999925735695E-1
119 112 4.999999689582633E-1
120 40 9.999999626077894E-1
120 42 9.999999446809532E-1
120 84 9.999999517677821E-1
120 92 4.999999318822664E-1
120 105 4.999999704260655E-1
120 113 9.999999729756419E-1
120 121 9.999999552523751E-1
121 17 9.999999923157221E-1
121 50 9.999999860062145E-1
121 84 9.9999999900296E-1
121 96 4.9999996266729724E-1
121 105 9.999999735576699E-1
121 113 9.999999604487904E-1
121 120 9.999999552523751E-1
122 23 4.999999420859322E-1
122 29 9.999999932601762E-1
122 36 4.999998595742376E-1
122 48 4.999999517728641E-1
122 52 4.999999378692937E-1
122 54 9.999999707594073E-1
122 57 9.999999554542122E-1
122 97 9.999999895448702E-1
122 107 9.999999939136615E-1
123 5 9.99999997029918E-1
123 18 9.999999942491274E-1
123 26 4.99999995226309E-1
123 56 4.999999899119469E-1
123 93 9.999999971351874E-1
123 129 9.999999960656107E-1
123 135 9.999999927180339E-1
124 19 9.999999945645058E-1
124 27 9.999999961290821E-1
124 30 9.999999887350849E-1
124 63 4.99999974898576E-1
124 66 4.9999998716467464E-1
124 133 4.999999729696793E-1
125 7 4.999999959627553E-1
125 25 4.9999998311565574E-1
125 28 4.999999887262479E-1
125 37 9.999999997533726E-1
125 41 9.999999990002382E-1
125 45 4.999999955532556E-1
125 69 9.999999982412121E-1
125 85 9.999999924256422E-1
125 106 9.999999981868684E-1
125 114 9.999999943156844E-1
125 128 4.999999928807409E-1
126 1 9.999999883820743E-1
126 5 4.9999999458713795E-1
126 6 4.9999998855205746E-1
126 26 9.999999956480341E-1
126 44 9.999999965400135E-1
126 71 4.999999798971877E-1
126 89 9.99999999999998E-1
126 93 9.999999925143692E-1
126 100 4.999999613242685E-1
127 2 4.99999996895614E-1
127 33 9.999999987681648E-1
127 39 9.999999949520945E-1
127 58 9.999999991501347E-1
127 60 9.999999982193587E-1
127 64 9.999999987523321E-1
127 83 9.99999999799632E-1
127 115 4.9999999626339453E-1
128 28 9.999999988784434E-1
128 41 4.999999941209128E-1
128 72 9.999999993488559E-1
128 85 9.999999989345567E-1
128 118 9.99999994024741E-1
128 125 4.999999928807409E-1
129 33 9.999999955173275E-1
129 39 4.9999999626114133E-1
129 83 4.9999999603314366E-1
129 88 9.99999992202967E-1
129 123 9.999999960656107E-1
129 135 9.999999958038279E-1
130 52 9.999999939869844E-1
130 62 9.999999972369934E-1
130 97 4.9999994217808136E-1
130 103 9.999999130083266E-1
130 107 4.999999594060762E-1
130 131 9.999999996630871E-1
131 52 9.99999995480561E-1
131 62 9.999999952521312E-1
131 97 4.999999369178508E-1
131 103 9.999999055259758E-1
131 107 4.9999995574277245E-1
131 130 9.999999996630871E-1
132 9 4.999999918305293E-1
132 16 9.999999995469134E-1
132 20 9.999999982079997E-1
132 22 4.999999943336529E-1
132 24 4.99999980080505E-1
132 68 9.999999928187838E-1
132 78 9.999999953235825E-1
132 80 9.999999923168429E-1
132 98 9.999999933217223E-1
133 10 9.999999989191886E-1
133 19 4.999999855557165E-1
133 22 4.9999999459464184E-1
133 27 4.99999975105712E-1
133 30 4.999999914596104E-1
133 46 9.999999968168194E-1
133 63 9.999999992656865E-1
133 66 4.999999933908133E-1
133 67 9.999999936300241E-1
133 108 4.999999948079087E-1
133 124 4.999999729696793E-1
133 134 4.999999958125374E-1
134 10 9.999999965275838E-1
134 46 9.999999987465062E-1
134 67 9.99999999847248E-1
134 77 9.999999982658051E-1
134 98 9.999999928721173E-1
134 108 9.999999972059398E-1
134 133 4.999999958125374E-1
135 5 4.9999999542476403E-1
135 39 9.999999980346681E-1
135 74 9.999999957967531E-1
135 83 4.999999960880383E-1
135 88 9.999999991223153E-1
135 123 9.999999927180339E-1
135 129 9.999999958038279E-1
136 3 4.9999995125378344E-1
136 32 4.999999786058602E-1
136 79 9.999999999053438E-1
136 81 9.999999942513705E-1
136 94 9.999999674336466E-1
136 111 9.999999588714392E-1
136 116 9.999999624546726E-1
