%%MatrixMarket matrix coordinate real general
%
136 136 536
1 15 4.9999998414886954E-1
1 44 4.9999998910998833E-1
1 71 4.9999998735317375E-1
1 89 4.9999999418847E-1
1 100 4.999999844074156E-1
1 109 4.9999996700380295E-1
1 126 4.9999999419103713E-1
2 33 4.99999998426443E-1
2 58 4.9999999834861997E-1
2 115 9.999999989948495E-1
3 14 9.999999831340557E-1
3 111 9.999999870142E-1
3 116 9.999999749896786E-1
4 9 9.999999847644299E-1
4 11 4.999999780351735E-1
4 65 4.999999699903509E-1
4 68 4.999999880653291E-1
4 87 4.99999978828604E-1
5 18 9.99999999418971E-1
5 26 9.999999976970625E-1
5 93 9.999999993129313E-1
5 123 4.99999998514959E-1
6 15 4.9999998574267335E-1
6 56 9.999999947058792E-1
6 89 4.9999998855670824E-1
6 95 4.999999606199534E-1
6 126 4.9999998855205746E-1
7 25 4.999999862168673E-1
7 37 4.999999972416413E-1
7 45 9.999999990110273E-1
7 69 4.99999998620716E-1
8 55 4.9999996928920964E-1
8 61 4.9999999141772766E-1
8 86 9.999999811411759E-1
8 112 4.9999998441356586E-1
8 119 9.999999944683792E-1
9 4 9.999999847644299E-1
9 11 4.999999446232981E-1
9 16 4.9999999424650254E-1
9 65 4.999999358154595E-1
9 68 9.999999955793353E-1
10 22 4.999999946832441E-1
10 46 9.999999993914259E-1
10 63 4.99999998211171E-1
10 67 9.999999977359015E-1
10 133 9.999999989191886E-1
11 4 4.999999780351735E-1
11 9 4.999999446232981E-1
11 65 9.99999982197415E-1
12 56 9.99999989319263E-1
12 61 9.999999978370672E-1
12 86 4.9999998669122697E-1
12 101 9.999999905003183E-1
13 25 4.999999772027301E-1
13 34 9.999999995097713E-1
13 99 4.99999943288391E-1
13 109 4.9999996315575956E-1
14 3 9.999999831340557E-1
14 104 4.999999662311145E-1
14 111 4.999999718090349E-1
15 1 4.9999998414886954E-1
15 6 4.9999998574267335E-1
15 95 9.999999818752137E-1
16 9 4.9999999424650254E-1
16 20 9.99999996771857E-1
16 68 4.999999979301324E-1
16 78 4.9999999813369733E-1
16 98 4.999999966663969E-1
16 132 9.999999995469134E-1
17 50 9.999999860867448E-1
17 84 9.999999920901247E-1
17 121 9.999999923157221E-1
18 5 9.99999999418971E-1
18 26 9.999999979697746E-1
18 93 9.999999977746213E-1
19 27 9.99999996964686E-1
19 30 9.999999984442767E-1
19 66 4.999999962593223E-1
19 124 9.999999945645058E-1
20 16 9.99999996771857E-1
20 24 4.9999998652851607E-1
20 78 9.999999962735043E-1
20 80 4.9999999764537834E-1
20 132 9.999999982079997E-1
21 32 9.999999992325975E-1
21 64 4.9999998724634614E-1
21 94 9.999999990632454E-1
22 10 4.999999946832441E-1
22 24 4.999999883353136E-1
22 46 4.999999950492766E-1
22 108 4.999999972540486E-1
23 36 4.9999990315958887E-1
23 57 9.999999796618682E-1
23 97 4.9999997021581355E-1
23 107 4.9999994665526604E-1
24 20 4.9999998652851607E-1
24 22 4.999999883353136E-1
24 50 9.999999894346674E-1
24 113 4.9999998044644717E-1
25 7 4.999999862168673E-1
25 13 4.999999772027301E-1
25 34 4.9999997238888355E-1
25 45 4.999999909409188E-1
25 106 4.9999998998514517E-1
26 5 9.999999976970625E-1
26 18 9.999999979697746E-1
26 44 4.999999987969398E-1
26 89 4.9999999782502424E-1
26 93 9.999999978330303E-1
26 126 4.9999999782401705E-1
27 19 9.99999996964686E-1
27 30 9.999999911709667E-1
27 124 9.999999961290821E-1
28 72 9.999999993211266E-1
28 85 9.999999957434337E-1
28 118 4.999999966964881E-1
28 128 9.999999988784434E-1
29 36 4.999998787238056E-1
29 54 9.999999879280057E-1
29 107 9.999999744865481E-1
29 122 9.999999932601762E-1
30 19 9.999999984442767E-1
30 27 9.999999911709667E-1
30 66 9.99999995975956E-1
30 124 4.9999999436754244E-1
31 53 4.9999999765966147E-1
31 59 9.999999960323406E-1
31 75 9.999999975191483E-1
31 82 9.999999971565978E-1
32 21 9.999999992325975E-1
32 94 9.999999991404117E-1
32 115 4.999999889107905E-1
33 2 4.99999998426443E-1
33 58 9.999999984739959E-1
33 83 9.999999989852824E-1
33 127 9.999999987681648E-1
33 129 4.999999977586638E-1
34 13 9.999999995097713E-1
34 25 4.9999997238888355E-1
34 99 4.999999484883211E-1
34 109 4.9999996028900484E-1
35 73 9.999999820456085E-1
35 91 4.9999999148646707E-1
35 117 9.999999950194667E-1
36 23 4.9999990315958887E-1
36 29 4.999998787238056E-1
36 57 4.9999991929865073E-1
37 7 4.999999972416413E-1
37 41 9.999999988163545E-1
37 69 9.999999992742834E-1
37 106 4.9999999911775506E-1
37 114 4.99999996168997E-1
37 125 9.999999997533726E-1
38 76 9.999999970437727E-1
38 96 9.99999979562871E-1
38 104 9.999999936229637E-1
39 60 9.999999976617131E-1
39 74 4.999999967456001E-1
39 88 9.999999993858995E-1
39 135 9.999999980346681E-1
40 42 4.9999996368503125E-1
40 43 9.999999606177742E-1
40 113 4.999999725235857E-1
40 120 9.999999626077894E-1
41 37 9.999999988163545E-1
41 69 9.999999980314387E-1
41 125 9.999999990002382E-1
42 40 4.9999996368503125E-1
42 92 9.999999799232063E-1
42 120 4.999999723404766E-1
43 40 9.999999606177742E-1
43 51 4.99999982733865E-1
43 73 9.999999827546295E-1
44 1 4.9999998910998833E-1
44 26 4.999999987969398E-1
44 89 9.999999965377324E-1
44 126 9.999999965400135E-1
45 7 9.999999990110273E-1
45 25 4.999999909409188E-1
45 69 4.999999977194358E-1
45 106 4.999999971567203E-1
46 10 9.999999993914259E-1
46 22 4.999999950492766E-1
46 63 4.999999965891402E-1
46 67 9.999999994512477E-1
46 133 4.999999984084097E-1
46 134 9.999999987465062E-1
47 99 9.999998799891746E-1
47 100 4.9999991748546657E-1
47 109 4.9999986709597644E-1
48 54 9.999999799207521E-1
48 102 9.999999886891632E-1
48 110 4.999999757058864E-1
49 51 4.9999998829245196E-1
49 70 9.999999950548668E-1
49 82 4.999999972667302E-1
49 91 9.999999958003002E-1
49 110 4.9999999699538666E-1
50 17 9.999999860867448E-1
50 24 9.999999894346674E-1
50 113 4.9999998421225605E-1
50 121 9.999999860062145E-1
51 43 4.99999982733865E-1
51 49 4.9999998829245196E-1
51 75 4.9999999053069405E-1
51 91 4.999999943773452E-1
52 62 9.999999834991948E-1
52 130 9.999999939869844E-1
52 131 9.99999995480561E-1
53 31 4.9999999765966147E-1
53 59 9.999999954640038E-1
53 87 9.999999960715924E-1
54 29 9.999999879280057E-1
54 48 9.999999799207521E-1
54 122 4.9999998537970364E-1
55 8 4.9999996928920964E-1
55 90 4.99999953223797E-1
55 95 4.999999588455586E-1
55 101 4.9999997112015315E-1
55 119 4.9999997625733716E-1
56 6 9.999999947058792E-1
56 12 9.99999989319263E-1
56 101 4.999999937633862E-1
57 23 9.999999796618682E-1
57 36 4.9999991929865073E-1
57 97 9.999999825831357E-1
57 122 4.999999777271061E-1
58 2 4.9999999834861997E-1
58 33 9.999999984739959E-1
58 64 9.999999998094772E-1
58 115 4.9999999828716074E-1
58 127 9.999999991501347E-1
59 31 9.999999960323406E-1
59 53 9.999999954640038E-1
59 75 4.999999967565023E-1
59 82 9.999999977775336E-1
60 39 9.999999976617131E-1
60 83 9.999999986924935E-1
60 127 4.9999999910967935E-1
61 8 4.9999999141772766E-1
61 12 9.999999978370672E-1
61 86 4.9999999190216776E-1
61 101 9.999999903665567E-1
61 119 9.999999901844466E-1
62 52 9.999999834991948E-1
62 103 4.999999699202939E-1
62 130 9.999999972369934E-1
62 131 9.999999952521312E-1
63 10 4.99999998211171E-1
63 46 4.999999965891402E-1
63 66 4.999999957291055E-1
63 133 9.999999992656865E-1
64 21 4.9999998724634614E-1
64 58 9.999999998094772E-1
64 83 4.99999998801599E-1
64 115 4.9999999811424906E-1
64 127 4.9999999937616607E-1
65 4 4.999999699903509E-1
65 9 4.999999358154595E-1
65 11 9.99999982197415E-1
66 19 4.999999962593223E-1
66 30 9.99999995975956E-1
66 63 4.999999957291055E-1
67 10 9.999999977359015E-1
67 46 9.999999994512477E-1
67 77 4.999999986329378E-1
67 108 4.999999987726831E-1
67 134 9.99999999847248E-1
68 4 4.999999880653291E-1
68 9 9.999999955793353E-1
68 16 4.999999979301324E-1
68 78 4.9999999802747463E-1
69 7 4.99999998620716E-1
69 37 9.999999992742834E-1
69 41 9.999999980314387E-1
69 45 4.999999977194358E-1
69 106 4.9999999818433444E-1
69 125 9.999999982412121E-1
70 49 9.999999950548668E-1
70 91 9.999999902850872E-1
70 102 4.9999999310284743E-1
70 110 9.999999988988499E-1
70 117 4.9999999453371813E-1
71 1 4.9999998735317375E-1
71 100 9.999999719012368E-1
71 109 9.999999894203822E-1
72 28 9.999999993211266E-1
72 85 9.999999968615821E-1
72 118 4.999999983150662E-1
72 128 9.999999993488559E-1
73 35 9.999999820456085E-1
73 43 9.999999827546295E-1
73 117 4.9999997914552385E-1
74 39 4.999999967456001E-1
74 88 9.999999967551445E-1
74 135 4.9999999789837657E-1
75 31 9.999999975191483E-1
75 51 4.9999999053069405E-1
75 59 4.999999967565023E-1
75 82 9.999999985329923E-1
76 38 9.999999970437727E-1
76 96 4.9999998726124567E-1
76 104 9.999999820400785E-1
77 67 4.999999986329378E-1
77 98 9.999999968566274E-1
77 134 9.999999982658051E-1
78 16 4.9999999813369733E-1
78 20 9.999999962735043E-1
78 68 4.9999999802747463E-1
78 80 9.999999993800586E-1
78 87 9.999999974569908E-1
78 132 4.9999999766179126E-1
79 81 9.99999993604353E-1
79 94 9.999999700785399E-1
79 136 9.999999999053438E-1
80 20 4.9999999764537834E-1
80 78 9.999999993800586E-1
80 87 9.999999988470527E-1
81 79 9.99999993604353E-1
81 111 4.999999918923002E-1
81 116 9.999999839950692E-1
81 136 9.999999942513705E-1
82 31 9.999999971565978E-1
82 49 4.999999972667302E-1
82 59 9.999999977775336E-1
82 75 9.999999985329923E-1
83 33 9.999999989852824E-1
83 60 9.999999986924935E-1
83 64 4.99999998801599E-1
83 127 9.99999999799632E-1
84 17 9.999999920901247E-1
84 105 9.999999821597282E-1
84 121 9.9999999900296E-1
85 28 9.999999957434337E-1
85 72 9.999999968615821E-1
85 128 9.999999989345567E-1
86 8 9.999999811411759E-1
86 12 4.9999998669122697E-1
86 61 4.9999999190216776E-1
86 112 4.99999975103835E-1
87 4 4.99999978828604E-1
87 53 9.999999960715924E-1
87 78 9.999999974569908E-1
87 80 9.999999988470527E-1
88 39 9.999999993858995E-1
88 74 9.999999967551445E-1
88 135 9.999999991223153E-1
89 1 4.9999999418847E-1
89 6 4.9999998855670824E-1
89 26 4.9999999782502424E-1
89 44 9.999999965377324E-1
89 126 9.99999999999998E-1
90 55 4.99999953223797E-1
90 92 9.999998607170565E-1
90 95 4.999999135757503E-1
91 35 4.9999999148646707E-1
91 49 9.999999958003002E-1
91 51 4.999999943773452E-1
91 70 9.999999902850872E-1
91 117 9.999999930742597E-1
92 42 9.999999799232063E-1
92 90 9.999998607170565E-1
92 120 4.999999318822664E-1
93 5 9.999999993129313E-1
93 18 9.999999977746213E-1
93 26 9.999999978330303E-1
93 123 4.999999985675937E-1
94 21 9.999999990632454E-1
94 32 9.999999991404117E-1
94 79 9.999999700785399E-1
94 136 4.999999837168233E-1
95 6 4.999999606199534E-1
95 15 9.999999818752137E-1
95 55 4.999999588455586E-1
95 90 4.999999135757503E-1
96 38 9.99999979562871E-1
96 76 4.9999998726124567E-1
96 104 9.999999788174861E-1
96 105 9.999999872762039E-1
97 23 4.9999997021581355E-1
97 57 9.999999825831357E-1
97 107 9.999999921973565E-1
97 122 9.999999895448702E-1
98 16 4.999999966663969E-1
98 77 9.999999968566274E-1
98 108 9.999999967179453E-1
99 13 4.99999943288391E-1
99 34 4.999999484883211E-1
99 47 9.999998799891746E-1
100 1 4.999999844074156E-1
100 47 4.9999991748546657E-1
100 71 9.999999719012368E-1
100 109 9.999999603419532E-1
101 12 9.999999905003183E-1
101 55 4.9999997112015315E-1
101 56 4.999999937633862E-1
101 61 9.999999903665567E-1
101 119 9.999999925735695E-1
102 48 9.999999886891632E-1
102 70 4.9999999310284743E-1
102 110 9.999999858639675E-1
103 62 4.999999699202939E-1
103 130 4.999999565041633E-1
103 131 4.999999527629879E-1
104 14 4.999999662311145E-1
104 38 9.999999936229637E-1
104 76 9.999999820400785E-1
104 96 9.999999788174861E-1
105 84 9.999999821597282E-1
105 96 9.999999872762039E-1
105 121 4.9999998677883495E-1
106 25 4.9999998998514517E-1
106 37 4.9999999911775506E-1
106 45 4.999999971567203E-1
106 69 4.9999999818433444E-1
106 114 4.999999978697454E-1
106 125 4.999999990934342E-1
107 23 4.9999994665526604E-1
107 29 9.999999744865481E-1
107 97 9.999999921973565E-1
107 122 9.999999939136615E-1
108 22 4.999999972540486E-1
108 67 4.999999987726831E-1
108 98 9.999999967179453E-1
108 134 4.999999986029699E-1
109 1 4.9999996700380295E-1
109 13 4.9999996315575956E-1
109 34 4.9999996028900484E-1
109 47 4.9999986709597644E-1
109 71 9.999999894203822E-1
109 100 9.999999603419532E-1
110 48 4.999999757058864E-1
110 49 4.9999999699538666E-1
110 70 9.999999988988499E-1
110 102 9.999999858639675E-1
111 3 9.999999870142E-1
111 14 4.999999718090349E-1
111 81 4.999999918923002E-1
111 116 9.999999963417697E-1
112 8 4.9999998441356586E-1
112 86 4.99999975103835E-1
112 119 4.999999689582633E-1
113 24 4.9999998044644717E-1
113 40 4.999999725235857E-1
113 50 4.9999998421225605E-1
113 120 9.999999729756419E-1
114 37 4.99999996168997E-1
114 106 4.999999978697454E-1
114 125 4.999999971578422E-1
115 2 9.999999989948495E-1
115 32 4.999999889107905E-1
115 58 4.9999999828716074E-1
115 64 4.9999999811424906E-1
116 3 9.999999749896786E-1
116 81 9.999999839950692E-1
116 111 9.999999963417697E-1
117 35 9.999999950194667E-1
117 70 4.9999999453371813E-1
117 73 4.9999997914552385E-1
117 91 9.999999930742597E-1
118 28 4.999999966964881E-1
118 72 4.999999983150662E-1
118 128 4.999999970123705E-1
119 8 9.999999944683792E-1
119 55 4.9999997625733716E-1
119 61 9.999999901844466E-1
119 101 9.999999925735695E-1
119 112 4.999999689582633E-1
120 40 9.999999626077894E-1
120 42 4.999999723404766E-1
120 92 4.999999318822664E-1
120 113 9.999999729756419E-1
120 121 4.9999997762618753E-1
121 17 9.999999923157221E-1
121 50 9.999999860062145E-1
121 84 9.9999999900296E-1
121 105 4.9999998677883495E-1
121 120 4.9999997762618753E-1
122 29 9.999999932601762E-1
122 54 4.9999998537970364E-1
122 57 4.999999777271061E-1
122 97 9.999999895448702E-1
122 107 9.999999939136615E-1
123 5 4.99999998514959E-1
123 93 4.999999985675937E-1
123 129 9.999999960656107E-1
124 19 9.999999945645058E-1
124 27 9.999999961290821E-1
124 30 4.9999999436754244E-1
125 37 9.999999997533726E-1
125 41 9.999999990002382E-1
125 69 9.999999982412121E-1
125 106 4.999999990934342E-1
125 114 4.999999971578422E-1
126 1 4.9999999419103713E-1
126 6 4.9999998855205746E-1
126 26 4.9999999782401705E-1
126 44 9.999999965400135E-1
126 89 9.99999999999998E-1
127 33 9.999999987681648E-1
127 58 9.999999991501347E-1
127 60 4.9999999910967935E-1
127 64 4.9999999937616607E-1
127 83 9.99999999799632E-1
128 28 9.999999988784434E-1
128 72 9.999999993488559E-1
128 85 9.999999989345567E-1
128 118 4.999999970123705E-1
129 33 4.999999977586638E-1
129 123 9.999999960656107E-1
129 135 9.999999958038279E-1
130 52 9.999999939869844E-1
130 62 9.999999972369934E-1
130 103 4.999999565041633E-1
130 131 9.999999996630871E-1
131 52 9.99999995480561E-1
131 62 9.999999952521312E-1
131 103 4.999999527629879E-1
131 130 9.999999996630871E-1
132 16 9.999999995469134E-1
132 20 9.999999982079997E-1
132 78 4.9999999766179126E-1
133 10 9.999999989191886E-1
133 46 4.999999984084097E-1
133 63 9.999999992656865E-1
134 46 9.999999987465062E-1
134 67 9.99999999847248E-1
134 77 9.999999982658051E-1
134 108 4.999999986029699E-1
135 39 9.999999980346681E-1
135 74 4.9999999789837657E-1
135 88 9.999999991223153E-1
135 129 9.999999958038279E-1
136 79 9.999999999053438E-1
136 81 9.999999942513705E-1
136 94 4.999999837168233E-1
