%%MatrixMarket matrix coordinate real general
%
132 132 2382
1 5 4.999999780537238E-1
1 6 9.999999738527838E-1
1 15 9.999999688367199E-1
1 18 4.999999768180798E-1
1 25 9.999999706401506E-1
1 42 9.999999785902662E-1
1 46 4.9999983658508396E-1
1 67 9.999999751363734E-1
1 88 9.999999885745476E-1
1 92 4.9999998198827594E-1
1 94 4.999999523763483E-1
1 98 4.9999984026487493E-1
1 99 9.999999693450208E-1
1 107 9.999999351295649E-1
1 115 4.999999662947603E-1
1 120 4.9999997231495785E-1
1 123 9.999999885795945E-1
2 8 4.9999996096992594E-1
2 12 9.99999978723646E-1
2 20 4.999999821323071E-1
2 31 4.9999998399553186E-1
2 32 9.999999969063911E-1
2 38 9.999999836980923E-1
2 55 9.999999967533914E-1
2 57 9.999999860068749E-1
2 58 4.9999998625820774E-1
2 61 9.999999956227412E-1
2 78 4.9999993098635737E-1
2 81 9.999999931605612E-1
2 84 9.999999995446843E-1
2 85 4.9999998290622527E-1
2 87 4.999999895170305E-1
2 93 4.9999997841740035E-1
2 100 4.9999997064521384E-1
2 113 9.999999990119384E-1
2 116 4.9999996519357914E-1
2 120 4.9999998915554145E-1
2 124 9.999999938967853E-1
2 126 9.999999920236047E-1
2 131 4.999999907763803E-1
2 132 4.9999992777438534E-1
3 14 9.999999834207993E-1
3 26 4.999998819565529E-1
3 31 4.999998796283982E-1
3 37 9.999998358166371E-1
3 69 4.9999989794655914E-1
3 73 9.999998049494178E-1
3 75 4.9999988060692435E-1
3 78 9.999999021122882E-1
3 93 4.9999988916560945E-1
3 103 9.999998647006221E-1
3 109 9.99999987234976E-1
3 110 4.999999228616824E-1
3 114 9.999999754148875E-1
3 132 9.999999041650687E-1
4 9 9.99999985023455E-1
4 11 9.999999568172099E-1
4 16 4.999999770116089E-1
4 19 4.999999667471343E-1
4 50 4.999997645871491E-1
4 51 4.9999997079974273E-1
4 59 4.999996807613157E-1
4 62 9.999999410011101E-1
4 64 9.999999765364689E-1
4 74 4.999999594938292E-1
4 76 9.999999917717413E-1
4 77 4.999999788241447E-1
4 79 4.9999997614980307E-1
4 86 4.9999997918854605E-1
4 97 4.999999699072177E-1
4 127 4.999997173783475E-1
4 128 4.999999722840577E-1
5 1 4.999999780537238E-1
5 6 4.999999818133404E-1
5 18 9.999999994288492E-1
5 25 9.999999977362155E-1
5 32 4.999999862225095E-1
5 38 9.999999807636395E-1
5 42 9.999999908215806E-1
5 67 4.999999601850521E-1
5 68 4.999999777239022E-1
5 71 9.9999998858398E-1
5 81 4.9999998441563026E-1
5 87 9.999999856704747E-1
5 88 9.999999893642273E-1
5 92 9.999999993246124E-1
5 99 4.999999284526098E-1
5 115 4.99999981368264E-1
5 120 9.999999970804134E-1
5 123 9.999999893583277E-1
5 126 9.99999988696855E-1
5 131 9.999999910050984E-1
6 1 9.999999738527838E-1
6 5 4.999999818133404E-1
6 8 4.99999952826481E-1
6 12 9.999999700715831E-1
6 15 9.999999719701339E-1
6 18 4.999999776493571E-1
6 25 4.999999822623229E-1
6 42 4.9999997871877916E-1
6 46 4.999997666869999E-1
6 53 4.999999431239808E-1
6 58 9.99999956079176E-1
6 88 9.99999977502519E-1
6 89 4.9999981726420284E-1
6 92 9.999999727403796E-1
6 94 4.9999996128946683E-1
6 99 4.9999994969988504E-1
6 100 9.999999769490998E-1
6 116 4.99999971866356E-1
6 120 4.9999998473534785E-1
6 123 9.999999774933757E-1
6 126 4.9999997598244994E-1
7 13 9.999998597194331E-1
7 24 9.999999729023981E-1
7 27 9.999999999900395E-1
7 33 4.9999992152150596E-1
7 36 9.999999945770742E-1
7 39 9.999999908032585E-1
7 43 9.999999990278412E-1
7 65 9.999999972883313E-1
7 68 4.9999997414915803E-1
7 83 9.999999703574172E-1
7 105 9.999999927564431E-1
7 112 9.999999778234007E-1
7 115 4.9999996613600195E-1
7 122 9.999999920627877E-1
7 125 9.999999589032287E-1
8 2 4.9999996096992594E-1
8 6 4.99999952826481E-1
8 12 9.999999696389005E-1
8 31 4.999999493476733E-1
8 53 9.999999396226683E-1
8 58 9.999999831272756E-1
8 69 9.999999058088157E-1
8 73 4.9999991061777105E-1
8 84 4.999999659027917E-1
8 85 9.999999814618012E-1
8 89 4.999998550269605E-1
8 100 9.99999975375159E-1
8 110 9.999999693571121E-1
8 113 4.999999620817329E-1
8 116 9.999999945624242E-1
8 126 4.9999994586582724E-1
9 4 9.99999985023455E-1
9 11 4.999999455647761E-1
9 16 9.999999886886394E-1
9 19 9.999999744175107E-1
9 62 4.9999993690668254E-1
9 63 9.99999956140282E-1
9 64 9.999999956544925E-1
9 74 9.999999729327435E-1
9 76 9.999999989661377E-1
9 77 9.999999837589224E-1
9 79 9.999999776174999E-1
9 86 9.99999975930463E-1
9 97 9.999999848833734E-1
9 106 4.999999840548915E-1
9 128 9.999999839388425E-1
9 130 9.999999590705699E-1
10 16 4.9999998225659886E-1
10 17 4.999999600740101E-1
10 19 4.9999998118792277E-1
10 21 9.99999989547272E-1
10 26 4.9999996987107226E-1
10 29 9.999999767562229E-1
10 45 9.999999994017724E-1
10 49 4.9999996400527796E-1
10 60 9.999999964831671E-1
10 63 9.999999977743942E-1
10 74 9.999999901956699E-1
10 77 4.999999705966282E-1
10 97 9.999999832057254E-1
10 106 9.999999939750304E-1
10 121 4.999999691645155E-1
10 128 4.999999846650565E-1
10 129 9.999999989375639E-1
10 130 9.999999965866194E-1
11 4 9.999999568172099E-1
11 9 4.999999455647761E-1
11 22 4.999996725644703E-1
11 28 4.9999989224647096E-1
11 47 9.999998615823021E-1
11 50 4.999998855839071E-1
11 51 4.999999292190257E-1
11 52 9.999998583143808E-1
11 56 4.999999214971788E-1
11 59 4.999998247275518E-1
11 62 9.999999825000828E-1
11 64 4.9999993883363186E-1
11 76 4.9999995560307914E-1
11 77 4.9999992435448903E-1
11 79 4.999999227422937E-1
11 86 4.9999993253384717E-1
11 96 4.9999983910858353E-1
11 101 4.9999992679437283E-1
11 102 4.99999655425356E-1
11 108 4.9999992774548535E-1
11 119 4.999998868074998E-1
11 127 4.9999985200682934E-1
12 2 9.99999978723646E-1
12 6 9.999999700715831E-1
12 8 9.999999696389005E-1
12 15 4.9999994692373734E-1
12 32 4.999999823718446E-1
12 53 4.9999994577000084E-1
12 55 4.999999795012348E-1
12 58 9.999999978738399E-1
12 61 4.999999775276373E-1
12 84 9.9999998116763E-1
12 85 9.999999738349878E-1
12 94 4.999999177232665E-1
12 100 9.999999906618255E-1
12 110 4.9999994279791765E-1
12 113 9.999999743513025E-1
12 116 9.999999827425771E-1
12 120 4.9999998480449526E-1
12 126 4.999999866764126E-1
13 7 9.999998597194331E-1
13 24 9.999999551806283E-1
13 27 9.999998582088219E-1
13 33 9.999999995181058E-1
13 36 4.9999993125177433E-1
13 39 4.999999195581147E-1
13 43 9.999998818646384E-1
13 46 4.999997997155933E-1
13 65 4.999999264443671E-1
13 67 4.9999993439310314E-1
13 98 9.999998885051283E-1
13 105 4.9999994579749385E-1
13 107 9.999999275643219E-1
13 112 4.999999486207969E-1
13 122 4.9999993163941453E-1
14 3 9.999999834207993E-1
14 26 4.9999992777236574E-1
14 37 9.999999037791231E-1
14 69 9.999998436443569E-1
14 73 9.99999873858944E-1
14 75 9.99999861049353E-1
14 95 9.999998418425767E-1
14 103 9.999999336104615E-1
14 104 4.9999991505955554E-1
14 109 9.99999944576638E-1
14 110 4.999999239142123E-1
14 114 9.999999189139395E-1
14 121 4.999999185128239E-1
14 132 4.9999991293797863E-1
15 1 9.999999688367199E-1
15 6 9.999999719701339E-1
15 12 4.9999994692373734E-1
15 25 4.9999995113569E-1
15 42 4.9999995306144396E-1
15 46 4.999998575222017E-1
15 53 9.999998895939224E-1
15 67 4.999999502998778E-1
15 88 4.9999996834893073E-1
15 89 4.9999986041348465E-1
15 92 4.9999995252259277E-1
15 94 9.999999821833593E-1
15 98 4.9999980063170085E-1
15 99 9.999999472917602E-1
15 100 9.9999992948056E-1
15 120 4.9999994453605207E-1
15 123 4.9999996834823623E-1
16 4 4.999999770116089E-1
16 9 9.999999886886394E-1
16 10 4.9999998225659886E-1
16 19 9.999999968267398E-1
16 21 9.999999842771684E-1
16 23 4.9999997648546424E-1
16 45 4.999999856664089E-1
16 51 4.999999855847319E-1
16 56 4.999999723030007E-1
16 62 4.999998961648318E-1
16 63 9.999999749548338E-1
16 64 9.999999959306458E-1
16 74 9.999999814680808E-1
16 76 9.999999832055089E-1
16 77 9.99999996330854E-1
16 79 9.999999930736096E-1
16 86 9.999999878507043E-1
16 97 9.999999934461452E-1
16 106 9.999999874889396E-1
16 128 9.999999995546165E-1
16 129 4.999999785932088E-1
16 130 9.999999752913771E-1
17 10 4.999999600740101E-1
17 21 4.99999966117857E-1
17 23 9.999999554135686E-1
17 26 9.999999401936411E-1
17 29 9.999999448734236E-1
17 37 4.999999160431451E-1
17 44 9.999999233946786E-1
17 49 9.999999863232887E-1
17 60 4.9999997473718544E-1
17 75 9.999999124713719E-1
17 82 9.999999922246031E-1
17 95 4.99999951945821E-1
17 103 4.9999993847157026E-1
17 104 9.999999602437988E-1
17 111 9.999999314550502E-1
17 117 4.999999560222928E-1
17 118 9.999999924463651E-1
17 121 4.9999995442359174E-1
17 129 4.9999996842699035E-1
18 1 4.999999768180798E-1
18 5 9.999999994288492E-1
18 6 4.999999776493571E-1
18 25 9.999999980042912E-1
18 32 4.9999998467014695E-1
18 38 9.999999809977403E-1
18 42 9.999999923290869E-1
18 67 4.9999996248121525E-1
18 68 4.999999824622817E-1
18 71 9.999999914338261E-1
18 87 9.999999864751592E-1
18 88 9.999999882047104E-1
18 92 9.999999978124557E-1
18 99 4.9999992793901976E-1
18 115 9.999999707951656E-1
18 120 9.999999943468999E-1
18 123 9.999999882002446E-1
18 126 4.9999999274732365E-1
18 131 9.999999908682504E-1
19 4 4.999999667471343E-1
19 9 9.999999744175107E-1
19 10 4.9999998118792277E-1
19 16 9.999999968267398E-1
19 21 9.999999888338872E-1
19 23 9.999999735150986E-1
19 30 9.999999722404744E-1
19 45 4.999999837271086E-1
19 49 4.9999996786743073E-1
19 51 9.999999778638047E-1
19 56 4.9999997826050946E-1
19 60 4.9999997743117935E-1
19 63 4.999999844542955E-1
19 64 9.999999889208225E-1
19 72 4.9999997815770436E-1
19 74 9.999999711766211E-1
19 76 4.9999998389456063E-1
19 77 9.999999963368597E-1
19 79 9.999999953708201E-1
19 80 4.999999760104315E-1
19 86 9.999999896569775E-1
19 97 9.999999855295345E-1
19 106 9.999999838033433E-1
19 128 9.999999982384661E-1
19 129 4.9999997914764577E-1
19 130 4.999999839606539E-1
20 2 4.999999821323071E-1
20 31 9.999999992456443E-1
20 32 4.999999782672357E-1
20 55 4.9999998547880836E-1
20 57 4.9999997650753203E-1
20 61 9.999999749263506E-1
20 78 9.999999602503142E-1
20 81 4.999999789920958E-1
20 84 4.9999998374322824E-1
20 85 9.999999562368491E-1
20 93 9.999999990791715E-1
20 109 4.999999197584646E-1
20 113 9.999999748340375E-1
20 114 4.9999992068787713E-1
20 124 4.9999998176994614E-1
20 132 9.999999574119287E-1
21 10 9.99999989547272E-1
21 16 9.999999842771684E-1
21 17 4.99999966117857E-1
21 19 9.999999888338872E-1
21 23 9.999999770672579E-1
21 26 4.9999995146786136E-1
21 29 4.9999997461445583E-1
21 45 9.999999902668911E-1
21 49 4.9999997893736775E-1
21 60 9.99999988440345E-1
21 63 9.999999885179625E-1
21 64 4.999999821060549E-1
21 74 9.999999823865218E-1
21 77 9.999999732295308E-1
21 79 4.999999849127953E-1
21 97 9.999999864604284E-1
21 106 9.999999946014669E-1
21 118 4.9999995164739386E-1
21 121 4.999999456721532E-1
21 128 9.999999888599767E-1
21 129 9.999999893730803E-1
21 130 9.9999998651236E-1
22 11 4.999996725644703E-1
22 28 9.999998566649638E-1
22 35 9.999998096120106E-1
22 47 4.999998159358698E-1
22 50 9.999997247663125E-1
22 52 4.9999988115871685E-1
22 54 9.999999800076437E-1
22 59 9.999998070914581E-1
22 66 4.999996604771416E-1
22 96 9.999999414443691E-1
22 101 4.999997491618533E-1
22 102 9.999998426635589E-1
22 119 9.999998861410976E-1
22 127 9.999997530831092E-1
23 16 4.9999997648546424E-1
23 17 9.999999554135686E-1
23 19 9.999999735150986E-1
23 21 9.999999770672579E-1
23 30 9.999999620211322E-1
23 41 4.9999991288119616E-1
23 44 9.999999754860258E-1
23 49 9.999999896142922E-1
23 60 9.999999526557567E-1
23 72 9.999999588329948E-1
23 77 4.999999778001402E-1
23 79 4.999999797239618E-1
23 80 4.99999972243383E-1
23 82 4.99999969561712E-1
23 111 9.999999615577675E-1
23 117 4.999999438379847E-1
23 118 9.99999952565342E-1
23 128 4.9999998041916305E-1
24 7 9.999999729023981E-1
24 13 9.999999551806283E-1
24 27 9.999999721484818E-1
24 33 9.999999457166189E-1
24 36 9.999999684243271E-1
24 39 9.999999552900025E-1
24 43 9.999999821898706E-1
24 65 9.999999665139175E-1
24 68 4.999999547686966E-1
24 83 4.999999680761153E-1
24 98 4.9999985953880477E-1
24 105 9.999999803108222E-1
24 107 4.999999522032777E-1
24 112 9.999999722432295E-1
24 122 9.999999668054244E-1
24 125 4.999999598352258E-1
25 1 9.999999706401506E-1
25 5 9.999999977362155E-1
25 6 4.999999822623229E-1
25 15 4.9999995113569E-1
25 18 9.999999980042912E-1
25 38 4.999999834578938E-1
25 42 9.999999976347869E-1
25 46 4.999997280980579E-1
25 67 4.999999724779481E-1
25 68 4.999999811226194E-1
25 71 9.999999818173518E-1
25 87 4.999999870705365E-1
25 88 9.999999957240034E-1
25 92 9.999999978698717E-1
25 99 4.999999438757656E-1
25 115 9.999999728539212E-1
25 120 9.999999906149363E-1
25 123 9.999999957220234E-1
25 126 4.999999882278464E-1
25 131 4.999999903554953E-1
26 3 4.999998819565529E-1
26 10 4.9999996987107226E-1
26 14 4.9999992777236574E-1
26 17 9.999999401936411E-1
26 21 4.9999995146786136E-1
26 29 9.999999913210721E-1
26 45 4.999999638120294E-1
26 49 4.9999994648127977E-1
26 60 9.999999574720249E-1
26 63 4.999999582243121E-1
26 82 9.999998970581344E-1
26 103 4.999999151545618E-1
26 104 4.999999306876791E-1
26 106 4.999999482635377E-1
26 118 4.99999945728068E-1
26 121 9.999999961948928E-1
26 129 9.999999510578963E-1
26 130 4.999999557260732E-1
27 7 9.999999999900395E-1
27 13 9.999998582088219E-1
27 24 9.999999721484818E-1
27 33 4.999999207136025E-1
27 36 9.999999948783922E-1
27 39 9.99999991316114E-1
27 43 9.999999988725511E-1
27 65 9.99999997552966E-1
27 68 4.999999747190857E-1
27 83 9.999999711977012E-1
27 105 9.999999928650226E-1
27 112 9.999999781076921E-1
27 115 4.9999996668159086E-1
27 122 9.999999924193699E-1
27 125 9.99999959938258E-1
28 11 4.9999989224647096E-1
28 22 9.999998566649638E-1
28 35 9.999997615713259E-1
28 47 9.999999437912115E-1
28 50 9.999998241441703E-1
28 52 9.999999881332458E-1
28 54 9.999999426886218E-1
28 59 9.999998114564856E-1
28 66 4.999998948997096E-1
28 96 9.999999722412078E-1
28 101 9.999998828294537E-1
28 102 4.999998314472502E-1
28 108 4.9999989671146017E-1
28 119 9.999999933747622E-1
28 127 9.99999802717861E-1
29 10 9.999999767562229E-1
29 17 9.999999448734236E-1
29 21 4.9999997461445583E-1
29 26 9.999999913210721E-1
29 45 9.99999969062385E-1
29 49 4.9999995913059E-1
29 60 9.999999860983708E-1
29 63 9.999999616110559E-1
29 74 4.999999698741563E-1
29 82 4.999999483469183E-1
29 97 4.9999996023615106E-1
29 106 4.999999737514576E-1
29 118 4.9999994844994566E-1
29 121 9.999999889266035E-1
29 129 9.999999832096168E-1
29 130 9.999999581363309E-1
30 19 9.999999722404744E-1
30 23 9.999999620211322E-1
30 34 4.999999567071523E-1
30 41 4.999999315577125E-1
30 44 4.9999997430387794E-1
30 48 9.999999843902045E-1
30 51 9.999999953989007E-1
30 56 9.999999960997961E-1
30 66 9.999999647139829E-1
30 70 4.999999203929982E-1
30 72 9.999999975613261E-1
30 77 9.999999774834405E-1
30 79 9.999999842786579E-1
30 80 9.999999972049395E-1
30 86 9.999999866947687E-1
30 90 9.99999972684646E-1
30 101 4.999999560066362E-1
30 108 9.999999680490423E-1
30 111 4.999999577219434E-1
30 128 4.9999997955239267E-1
31 2 4.9999998399553186E-1
31 3 4.999998796283982E-1
31 8 4.999999493476733E-1
31 20 9.999999992456443E-1
31 32 4.9999997893162007E-1
31 55 9.99999971555894E-1
31 57 4.999999753593501E-1
31 61 9.999999750901454E-1
31 78 9.999999610896962E-1
31 81 4.9999997878905184E-1
31 84 4.9999998596176415E-1
31 85 9.999999668199466E-1
31 93 9.999999991550258E-1
31 109 4.999999225732672E-1
31 110 4.9999993349265254E-1
31 113 9.999999781986438E-1
31 114 4.9999992188243025E-1
31 124 4.999999815612851E-1
31 132 9.999999579391784E-1
32 2 9.999999969063911E-1
32 5 4.999999862225095E-1
32 12 4.999999823718446E-1
32 18 4.9999998467014695E-1
32 20 4.999999782672357E-1
32 31 4.9999997893162007E-1
32 38 9.999999947348238E-1
32 55 9.9999999849994E-1
32 57 9.999999955461827E-1
32 58 4.99999976934056E-1
32 61 9.999999972898002E-1
32 71 9.999999783998526E-1
32 81 9.999999990025339E-1
32 84 9.999999941517694E-1
32 87 9.999999916199659E-1
32 92 4.9999998425973635E-1
32 93 4.999999729855273E-1
32 113 9.999999943742953E-1
32 116 4.9999995105796374E-1
32 120 9.999999836167802E-1
32 124 9.999999987891076E-1
32 126 9.99999995593539E-1
32 131 9.999999921879344E-1
33 7 4.9999992152150596E-1
33 13 9.999999995181058E-1
33 24 9.999999457166189E-1
33 27 4.999999207136025E-1
33 36 4.999999228730903E-1
33 39 4.9999991053010523E-1
33 43 4.9999993327822695E-1
33 46 4.9999980550339296E-1
33 65 4.9999991779006503E-1
33 67 4.9999992976262425E-1
33 98 9.999998987281771E-1
33 105 4.999999383323548E-1
33 107 9.999999219282898E-1
33 112 4.999999415264513E-1
33 122 4.9999992329877896E-1
34 30 4.999999567071523E-1
34 35 4.9999978207398166E-1
34 41 9.999999597432442E-1
34 44 4.999999429584425E-1
34 47 9.999999058582785E-1
34 48 9.999999656556138E-1
34 51 4.999999439400702E-1
34 52 4.9999990214383494E-1
34 56 4.9999996391066065E-1
34 66 9.99999969859629E-1
34 70 9.999999823508572E-1
34 72 4.999999680433411E-1
34 80 4.999999704547976E-1
34 90 9.99999983262417E-1
34 101 9.999999509515318E-1
34 108 9.999999573606037E-1
35 22 9.999998096120106E-1
35 28 9.999997615713259E-1
35 34 4.9999978207398166E-1
35 41 4.9999969365151975E-1
35 47 4.9999983044924645E-1
35 52 4.99999846891496E-1
35 54 9.999998413413632E-1
35 66 4.999997336103092E-1
35 70 4.99999786622057E-1
35 90 4.9999970757250295E-1
35 96 9.99999746026598E-1
35 101 4.9999979408889367E-1
35 102 4.9999965558654597E-1
35 108 4.9999972030755296E-1
35 119 9.999997239233264E-1
36 7 9.999999945770742E-1
36 13 4.9999993125177433E-1
36 24 9.999999684243271E-1
36 27 9.999999948783922E-1
36 33 4.999999228730903E-1
36 39 9.99999998836478E-1
36 43 9.999999936337531E-1
36 65 9.999999992866215E-1
36 68 9.999999757267278E-1
36 71 4.9999995006088477E-1
36 83 9.99999989948733E-1
36 105 9.999999982655088E-1
36 112 9.999999924682583E-1
36 115 9.999999651783666E-1
36 122 9.999999997575657E-1
36 125 9.999999826060614E-1
37 3 9.999998358166371E-1
37 14 9.999999037791231E-1
37 17 4.999999160431451E-1
37 40 9.999998102520051E-1
37 69 9.999999745385219E-1
37 73 9.999999970940325E-1
37 75 9.999999819817544E-1
37 82 4.99999934655431E-1
37 89 4.9999981804922444E-1
37 91 4.9999990411029793E-1
37 95 9.999999799103295E-1
37 103 9.999999937313818E-1
37 104 9.99999945858589E-1
37 109 4.9999989017719426E-1
37 110 9.999999125414432E-1
37 114 4.999998603070368E-1
37 117 4.999999055751437E-1
37 118 4.999999232302942E-1
38 2 9.999999836980923E-1
38 5 9.999999807636395E-1
38 18 9.999999809977403E-1
38 25 4.999999834578938E-1
38 32 9.999999947348238E-1
38 55 9.999999905559952E-1
38 57 9.999999977014671E-1
38 61 9.999999888911122E-1
38 71 9.999999936018584E-1
38 81 9.999999967579716E-1
38 84 4.9999998892743963E-1
38 87 9.9999999939634E-1
38 92 4.999999873769697E-1
38 113 4.9999998922796696E-1
38 120 9.999999844546119E-1
38 124 9.999999950379156E-1
38 126 9.999999926494139E-1
38 131 9.999999980680814E-1
39 7 9.999999908032585E-1
39 13 4.999999195581147E-1
39 24 9.999999552900025E-1
39 27 9.99999991316114E-1
39 33 4.9999991053010523E-1
39 36 9.99999998836478E-1
39 43 9.99999988049486E-1
39 65 9.999999980649069E-1
39 68 9.999999824329416E-1
39 71 4.999999590363213E-1
39 83 9.999999938406046E-1
39 105 9.999999946953718E-1
39 112 9.999999900214241E-1
39 115 9.999999706427568E-1
39 122 9.999999990172355E-1
39 125 9.999999884417302E-1
40 37 9.999998102520051E-1
40 41 4.999998924059595E-1
40 44 4.999998978651737E-1
40 69 4.999998842776175E-1
40 73 9.999998284241649E-1
40 75 9.999998741594256E-1
40 82 4.9999991593136384E-1
40 89 4.9999986981693195E-1
40 91 9.999999802645386E-1
40 95 9.99999892082927E-1
40 103 4.999998901434316E-1
40 104 9.999998723270189E-1
40 111 4.9999992412067185E-1
40 117 9.99999945621451E-1
40 118 4.999999139547679E-1
41 23 4.9999991288119616E-1
41 30 4.999999315577125E-1
41 34 9.999999597432442E-1
41 35 4.9999969365151975E-1
41 40 4.999998924059595E-1
41 44 9.999999261784428E-1
41 48 4.999999500222439E-1
41 56 4.9999992846616736E-1
41 66 4.999999414821793E-1
41 70 9.999999830478239E-1
41 72 4.9999994859191427E-1
41 80 4.999999437685862E-1
41 90 9.999999355797681E-1
41 108 4.9999993098822976E-1
41 111 9.999999235077716E-1
41 117 9.999998826967537E-1
42 1 9.999999785902662E-1
42 5 9.999999908215806E-1
42 6 4.9999997871877916E-1
42 15 4.9999995306144396E-1
42 18 9.999999923290869E-1
42 25 9.999999976347869E-1
42 46 4.9999975484157544E-1
42 67 9.999999650953714E-1
42 68 9.999999677952405E-1
42 71 9.999999720866768E-1
42 83 4.999999736490942E-1
42 88 9.999999965965956E-1
42 92 9.999999913301876E-1
42 98 4.999997972905242E-1
42 99 4.999999557298785E-1
42 107 4.999999602813434E-1
42 115 9.999999809235021E-1
42 120 9.999999789228706E-1
42 123 9.999999965988379E-1
42 125 4.9999997912800653E-1
42 126 4.999999796008532E-1
42 131 4.999999832496149E-1
43 7 9.999999990278412E-1
43 13 9.999998818646384E-1
43 24 9.999999821898706E-1
43 27 9.999999988725511E-1
43 33 4.9999993327822695E-1
43 36 9.999999936337531E-1
43 39 9.99999988049486E-1
43 65 9.999999955164169E-1
43 68 4.999999723301216E-1
43 83 9.999999676914622E-1
43 105 9.999999944101197E-1
43 112 9.999999806518574E-1
43 115 4.999999656937028E-1
43 122 9.999999912577124E-1
43 125 9.999999552273305E-1
44 17 9.999999233946786E-1
44 23 9.999999754860258E-1
44 30 4.9999997430387794E-1
44 34 4.999999429584425E-1
44 40 4.999998978651737E-1
44 41 9.999999261784428E-1
44 48 9.999999208876037E-1
44 49 9.999999705548313E-1
44 56 4.999999615390024E-1
44 70 4.999999315038442E-1
44 72 9.99999960723338E-1
44 80 9.99999944603632E-1
44 82 9.999999330947196E-1
44 90 9.999999313321012E-1
44 104 4.999999317796629E-1
44 111 9.99999995883742E-1
44 117 9.999999484168215E-1
44 118 9.99999947758876E-1
45 10 9.999999994017724E-1
45 16 4.999999856664089E-1
45 19 4.999999837271086E-1
45 21 9.999999902668911E-1
45 26 4.999999638120294E-1
45 29 9.99999969062385E-1
45 60 9.999999932942587E-1
45 63 9.999999994605772E-1
45 64 4.9999997471806634E-1
45 74 9.999999943965507E-1
45 97 9.999999887051385E-1
45 106 9.999999966979759E-1
45 121 4.9999996364426214E-1
45 128 4.999999875702847E-1
45 129 9.999999968709377E-1
45 130 9.999999987678173E-1
46 1 4.9999983658508396E-1
46 6 4.999997666869999E-1
46 13 4.999997997155933E-1
46 15 4.999998575222017E-1
46 25 4.999997280980579E-1
46 33 4.9999980550339296E-1
46 42 4.9999975484157544E-1
46 67 4.999998514229702E-1
46 88 4.9999977111646043E-1
46 94 4.9999986611018055E-1
46 98 9.999998820295192E-1
46 99 4.9999991888832396E-1
46 107 4.999998693555224E-1
46 123 4.999997711366493E-1
47 11 9.999998615823021E-1
47 22 4.999998159358698E-1
47 28 9.999999437912115E-1
47 34 9.999999058582785E-1
47 35 4.9999983044924645E-1
47 48 4.999999578451625E-1
47 50 4.99999837204451E-1
47 51 4.99999928166072E-1
47 52 9.999999802621262E-1
47 54 4.999998917274878E-1
47 56 4.999999442633206E-1
47 59 4.999998046986936E-1
47 66 9.999999509834845E-1
47 70 4.999999115002558E-1
47 72 4.9999992389570647E-1
47 80 4.9999993716993146E-1
47 90 4.999999522352492E-1
47 96 4.999999187909055E-1
47 101 9.999999888814626E-1
47 102 4.999996762583156E-1
47 108 9.999999522378377E-1
47 119 9.999999051855798E-1
47 127 4.9999981094712626E-1
48 30 9.999999843902045E-1
48 34 9.999999656556138E-1
48 41 4.999999500222439E-1
48 44 9.999999208876037E-1
48 47 4.999999578451625E-1
48 51 9.999999771478517E-1
48 52 4.99999909110165E-1
48 56 9.999999928766352E-1
48 66 9.999999951389408E-1
48 70 4.9999995273763354E-1
48 72 9.999999893969613E-1
48 77 4.999999663970864E-1
48 79 4.999999722487683E-1
48 80 9.99999994626399E-1
48 86 4.999999772492334E-1
48 90 9.999999958717006E-1
48 101 9.999999654318763E-1
48 108 9.999999940929382E-1
49 10 4.9999996400527796E-1
49 17 9.999999863232887E-1
49 19 4.9999996786743073E-1
49 21 4.9999997893736775E-1
49 23 9.999999896142922E-1
49 26 4.9999994648127977E-1
49 29 4.9999995913059E-1
49 44 9.999999705548313E-1
49 60 4.999999751467571E-1
49 75 4.999999277203393E-1
49 82 9.999999789041606E-1
49 95 4.999999246992899E-1
49 104 9.999999229180744E-1
49 106 4.999999615620916E-1
49 111 9.999999689613377E-1
49 117 9.999999260248172E-1
49 118 9.999999862441277E-1
49 121 4.99999929330464E-1
49 129 4.9999997020897996E-1
50 4 4.999997645871491E-1
50 11 4.999998855839071E-1
50 22 9.999997247663125E-1
50 28 9.999998241441703E-1
50 47 4.99999837204451E-1
50 52 9.999998004838808E-1
50 54 9.999997781514159E-1
50 59 9.999999837797307E-1
50 62 4.99999875165167E-1
50 96 9.999998761830635E-1
50 101 4.999997829181132E-1
50 102 9.999998636233719E-1
50 119 9.999998778511976E-1
50 127 9.999999955573974E-1
51 4 4.9999997079974273E-1
51 11 4.999999292190257E-1
51 16 4.999999855847319E-1
51 19 9.999999778638047E-1
51 30 9.999999953989007E-1
51 34 4.999999439400702E-1
51 47 4.99999928166072E-1
51 48 9.999999771478517E-1
51 56 9.999999955411217E-1
51 62 4.9999989238740034E-1
51 64 9.999999768280775E-1
51 66 9.999999611342691E-1
51 72 9.999999870530601E-1
51 76 4.9999997794032414E-1
51 77 9.999999880367071E-1
51 79 9.99999992412919E-1
51 80 9.999999903377799E-1
51 86 9.999999961383806E-1
51 90 4.999999786051821E-1
51 101 4.999999580254223E-1
51 108 9.999999685706069E-1
51 128 4.999999848887896E-1
52 11 9.999998583143808E-1
52 22 4.9999988115871685E-1
52 28 9.999999881332458E-1
52 34 4.9999990214383494E-1
52 35 4.99999846891496E-1
52 47 9.999999802621262E-1
52 48 4.99999909110165E-1
52 50 9.999998004838808E-1
52 54 9.999998788034897E-1
52 56 4.999998941958537E-1
52 59 4.999998802071388E-1
52 62 4.9999987597630247E-1
52 66 4.9999993563047296E-1
52 90 4.999998991738766E-1
52 96 9.999999281497278E-1
52 101 9.999999400946296E-1
52 102 4.999997794368125E-1
52 108 4.9999993818159444E-1
52 119 9.999999712565365E-1
52 127 4.99999882384315E-1
53 6 4.999999431239808E-1
53 8 9.999999396226683E-1
53 12 4.9999994577000084E-1
53 15 9.999998895939224E-1
53 58 4.9999995217530524E-1
53 69 9.99999878698276E-1
53 73 4.999998965920712E-1
53 84 4.99999893806208E-1
53 85 4.999999284950568E-1
53 89 9.9999990803811E-1
53 91 4.999998608923693E-1
53 94 9.999999190904783E-1
53 100 9.999999432222985E-1
53 110 9.999998838743036E-1
53 116 9.999999533219883E-1
54 22 9.999999800076437E-1
54 28 9.999999426886218E-1
54 35 9.999998413413632E-1
54 47 4.999998917274878E-1
54 50 9.999997781514159E-1
54 52 9.999998788034897E-1
54 59 9.999998261986479E-1
54 66 4.999997668217926E-1
54 96 9.999999828792457E-1
54 101 4.999998392415733E-1
54 102 9.999997936663527E-1
54 108 4.99999766450588E-1
54 119 9.999999562115501E-1
54 127 9.999997876279533E-1
55 2 9.999999967533914E-1
55 12 4.999999795012348E-1
55 20 4.9999998547880836E-1
55 31 9.99999971555894E-1
55 32 9.9999999849994E-1
55 38 9.999999905559952E-1
55 57 9.999999950790083E-1
55 58 4.9999997527447704E-1
55 61 9.999999998127163E-1
55 78 4.999999330560112E-1
55 81 9.999999983516553E-1
55 84 9.99999994889255E-1
55 85 4.999999744342049E-1
55 87 9.999999856145353E-1
55 93 4.999999809532972E-1
55 113 9.999999966325626E-1
55 120 4.99999986165868E-1
55 124 9.999999991645836E-1
55 126 9.999999891157695E-1
55 131 9.999999848734501E-1
55 132 4.9999993018246197E-1
56 11 4.999999214971788E-1
56 16 4.999999723030007E-1
56 19 4.9999997826050946E-1
56 30 9.999999960997961E-1
56 34 4.9999996391066065E-1
56 41 4.9999992846616736E-1
56 44 4.999999615390024E-1
56 47 4.999999442633206E-1
56 48 9.999999928766352E-1
56 51 9.999999955411217E-1
56 52 4.999998941958537E-1
56 62 4.999998764591865E-1
56 64 4.999999761477977E-1
56 66 9.999999818655282E-1
56 70 4.999999253876773E-1
56 72 9.999999936232922E-1
56 77 9.999999692424836E-1
56 79 9.99999976849045E-1
56 80 9.999999978153185E-1
56 86 9.999999833806126E-1
56 90 9.999999798738841E-1
56 101 4.99999971854558E-1
56 108 9.999999855773899E-1
56 111 4.9999994176270723E-1
57 2 9.999999860068749E-1
57 20 4.9999997650753203E-1
57 31 4.999999753593501E-1
57 32 9.999999955461827E-1
57 38 9.999999977014671E-1
57 55 9.999999950790083E-1
57 61 9.999999946910761E-1
57 71 9.999999848220044E-1
57 81 9.999999987147228E-1
57 84 9.999999812077984E-1
57 87 9.999999948600781E-1
57 93 4.9999996996714674E-1
57 113 9.999999837338834E-1
57 120 4.9999998654710487E-1
57 124 9.999999982496319E-1
57 126 9.999999872492277E-1
57 131 9.999999918353959E-1
58 2 4.9999998625820774E-1
58 6 9.99999956079176E-1
58 8 9.999999831272756E-1
58 12 9.999999978738399E-1
58 32 4.99999976934056E-1
58 53 4.9999995217530524E-1
58 55 4.9999997527447704E-1
58 61 4.999999735919628E-1
58 69 4.999999047000936E-1
58 84 9.999999768977319E-1
58 85 9.999999840796835E-1
58 89 4.999998124253066E-1
58 94 4.9999991195472854E-1
58 100 9.999999905303382E-1
58 110 4.9999995732939573E-1
58 113 4.9999998519334365E-1
58 116 9.999999903513241E-1
58 120 4.99999976116521E-1
58 126 4.999999797933715E-1
59 4 4.999996807613157E-1
59 11 4.999998247275518E-1
59 22 9.999998070914581E-1
59 28 9.999998114564856E-1
59 47 4.999998046986936E-1
59 50 9.999999837797307E-1
59 52 4.999998802071388E-1
59 54 9.999998261986479E-1
59 62 4.9999980549574596E-1
59 96 9.999998975128956E-1
59 101 4.9999973934061814E-1
59 102 9.999999408633783E-1
59 119 9.999998742534897E-1
59 127 9.999999953328513E-1
60 10 9.999999964831671E-1
60 17 4.9999997473718544E-1
60 19 4.9999997743117935E-1
60 21 9.99999988440345E-1
60 23 9.999999526557567E-1
60 26 9.999999574720249E-1
60 29 9.999999860983708E-1
60 45 9.999999932942587E-1
60 49 4.999999751467571E-1
60 63 9.999999889540252E-1
60 74 9.999999755724029E-1
60 82 4.9999995189439955E-1
60 97 4.9999998418860153E-1
60 106 9.999999852746989E-1
60 118 4.9999995547770854E-1
60 121 4.999999753253338E-1
60 128 4.999999790693965E-1
60 129 9.999999992781708E-1
60 130 9.999999863256056E-1
61 2 9.999999956227412E-1
61 12 4.999999775276373E-1
61 20 9.999999749263506E-1
61 31 9.999999750901454E-1
61 32 9.999999972898002E-1
61 38 9.999999888911122E-1
61 55 9.999999998127163E-1
61 57 9.999999946910761E-1
61 58 4.999999735919628E-1
61 78 4.999999370137713E-1
61 81 9.999999976439469E-1
61 84 9.999999939329826E-1
61 85 4.999999744049599E-1
61 87 9.999999833764898E-1
61 93 4.9999998311198873E-1
61 113 9.999999962926187E-1
61 124 9.999999987735442E-1
61 126 9.999999860888926E-1
61 131 9.999999820164014E-1
61 132 4.9999993427221784E-1
62 4 9.999999410011101E-1
62 9 4.9999993690668254E-1
62 11 9.999999825000828E-1
62 16 4.999998961648318E-1
62 50 4.99999875165167E-1
62 51 4.9999989238740034E-1
62 52 4.9999987597630247E-1
62 56 4.999998764591865E-1
62 59 4.9999980549574596E-1
62 64 4.9999992165262347E-1
62 76 4.999999465072453E-1
62 77 4.999998996863699E-1
62 79 4.9999989486008095E-1
62 86 4.999999033570087E-1
62 97 4.999998879969526E-1
62 102 4.999996243307478E-1
62 127 4.999998397611701E-1
62 128 4.999998863249599E-1
63 9 9.99999956140282E-1
63 10 9.999999977743942E-1
63 16 9.999999749548338E-1
63 19 4.999999844542955E-1
63 21 9.999999885179625E-1
63 26 4.999999582243121E-1
63 29 9.999999616110559E-1
63 45 9.999999994605772E-1
63 60 9.999999889540252E-1
63 74 9.999999973123594E-1
63 97 9.999999921481141E-1
63 106 9.999999975870982E-1
63 121 4.999999589320224E-1
63 128 9.999999777854048E-1
63 129 9.999999937383223E-1
63 130 9.99999999849845E-1
64 4 9.999999765364689E-1
64 9 9.999999956544925E-1
64 11 4.9999993883363186E-1
64 16 9.999999959306458E-1
64 19 9.999999889208225E-1
64 21 4.999999821060549E-1
64 45 4.9999997471806634E-1
64 51 9.999999768280775E-1
64 56 4.999999761477977E-1
64 62 4.9999992165262347E-1
64 74 9.999999686929236E-1
64 76 9.999999941546344E-1
64 77 9.999999961220204E-1
64 79 9.999999929893852E-1
64 86 9.999999916646324E-1
64 97 9.999999847844003E-1
64 106 9.999999716721737E-1
64 128 9.99999992940874E-1
65 7 9.999999972883313E-1
65 13 4.999999264443671E-1
65 24 9.999999665139175E-1
65 27 9.99999997552966E-1
65 33 4.9999991779006503E-1
65 36 9.999999992866215E-1
65 39 9.999999980649069E-1
65 43 9.999999955164169E-1
65 68 9.999999692254853E-1
65 71 4.99999945562246E-1
65 83 9.999999855035696E-1
65 105 9.999999964304064E-1
65 112 9.999999872635553E-1
65 115 4.9999997789649764E-1
65 122 9.999999982711139E-1
65 125 9.999999772929583E-1
66 22 4.999996604771416E-1
66 28 4.999998948997096E-1
66 30 9.999999647139829E-1
66 34 9.99999969859629E-1
66 35 4.999997336103092E-1
66 41 4.999999414821793E-1
66 47 9.999999509834845E-1
66 48 9.999999951389408E-1
66 51 9.999999611342691E-1
66 52 4.9999993563047296E-1
66 54 4.999997668217926E-1
66 56 9.999999818655282E-1
66 70 9.9999990655036E-1
66 72 9.999999703645398E-1
66 79 4.999999596020471E-1
66 80 9.999999804970344E-1
66 86 4.999999669363064E-1
66 90 9.999999904502537E-1
66 101 9.999999864402165E-1
66 108 9.99999998917571E-1
67 1 9.999999751363734E-1
67 5 4.999999601850521E-1
67 13 4.9999993439310314E-1
67 15 4.999999502998778E-1
67 18 4.9999996248121525E-1
67 25 4.999999724779481E-1
67 33 4.9999992976262425E-1
67 42 9.999999650953714E-1
67 46 4.999998514229702E-1
67 68 4.999999655680816E-1
67 88 9.99999960460447E-1
67 92 4.999999621430813E-1
67 94 4.9999990466686994E-1
67 98 4.999998987960834E-1
67 99 9.999999723789534E-1
67 107 9.999999896002498E-1
67 112 9.999999348216797E-1
67 115 4.999999788641825E-1
67 123 9.999999604779248E-1
67 125 4.9999996161661825E-1
68 5 4.999999777239022E-1
68 7 4.9999997414915803E-1
68 18 4.999999824622817E-1
68 24 4.999999547686966E-1
68 25 4.999999811226194E-1
68 27 4.999999747190857E-1
68 36 9.999999757267278E-1
68 39 9.999999824329416E-1
68 42 9.999999677952405E-1
68 43 4.999999723301216E-1
68 65 9.999999692254853E-1
68 67 4.999999655680816E-1
68 71 4.9999998555555175E-1
68 83 9.999999969149395E-1
68 105 9.999999704896951E-1
68 107 4.9999995100553984E-1
68 112 9.999999815991173E-1
68 115 9.999999966874247E-1
68 122 9.999999799065079E-1
68 125 9.999999993599262E-1
69 3 4.9999989794655914E-1
69 8 9.999999058088157E-1
69 14 9.999998436443569E-1
69 37 9.999999745385219E-1
69 40 4.999998842776175E-1
69 53 9.99999878698276E-1
69 58 4.999999047000936E-1
69 73 9.999999859990815E-1
69 75 9.999999226557368E-1
69 85 4.999999231046861E-1
69 89 4.9999987837307375E-1
69 91 9.999998113388647E-1
69 95 9.999999247259997E-1
69 103 9.999999457166555E-1
69 104 4.9999992749985706E-1
69 109 4.999998851230773E-1
69 110 9.999999684896036E-1
69 114 4.999998557786493E-1
69 116 4.9999993407668164E-1
70 30 4.999999203929982E-1
70 34 9.999999823508572E-1
70 35 4.99999786622057E-1
70 41 9.999999830478239E-1
70 44 4.999999315038442E-1
70 47 4.999999115002558E-1
70 48 4.9999995273763354E-1
70 56 4.999999253876773E-1
70 66 9.9999990655036E-1
70 72 4.9999993806353293E-1
70 80 4.9999993780795216E-1
70 90 9.999999400559241E-1
70 101 4.9999993961676675E-1
70 108 4.999999427236565E-1
70 111 4.99999924075522E-1
71 5 9.9999998858398E-1
71 18 9.999999914338261E-1
71 25 9.999999818173518E-1
71 32 9.999999783998526E-1
71 36 4.9999995006088477E-1
71 38 9.999999936018584E-1
71 39 4.999999590363213E-1
71 42 9.999999720866768E-1
71 57 9.999999848220044E-1
71 65 4.99999945562246E-1
71 68 4.9999998555555175E-1
71 81 9.999999813089693E-1
71 83 4.999999756705044E-1
71 87 9.999999968103114E-1
71 88 4.9999997997019124E-1
71 92 9.999999823988177E-1
71 115 4.999999831639317E-1
71 120 9.999999838761872E-1
71 122 4.9999995376567447E-1
71 123 4.999999799668178E-1
71 124 9.999999773862326E-1
71 125 4.999999822259696E-1
71 126 4.999999919162888E-1
71 131 9.999999958682139E-1
72 19 4.9999997815770436E-1
72 23 9.999999588329948E-1
72 30 9.999999975613261E-1
72 34 4.999999680433411E-1
72 41 4.9999994859191427E-1
72 44 9.99999960723338E-1
72 47 4.9999992389570647E-1
72 48 9.999999893969613E-1
72 51 9.999999870530601E-1
72 56 9.999999936232922E-1
72 66 9.999999703645398E-1
72 70 4.9999993806353293E-1
72 77 4.9999998032435566E-1
72 79 4.999999848960833E-1
72 80 9.999999985579334E-1
72 86 9.999999728704209E-1
72 90 9.999999839600163E-1
72 101 4.999999587635288E-1
72 108 9.999999704620963E-1
72 111 4.999999657077819E-1
72 117 4.999999101431658E-1
73 3 9.999998049494178E-1
73 8 4.9999991061777105E-1
73 14 9.99999873858944E-1
73 37 9.999999970940325E-1
73 40 9.999998284241649E-1
73 53 4.999998965920712E-1
73 69 9.999999859990815E-1
73 75 9.999999743974992E-1
73 82 4.999999221886904E-1
73 89 4.9999984885499094E-1
73 91 9.999998388019388E-1
73 95 9.999999749556431E-1
73 103 9.999999823454211E-1
73 104 9.999999310395958E-1
73 109 4.9999987706527205E-1
73 110 9.999999237294308E-1
73 118 4.9999991020088785E-1
74 4 4.999999594938292E-1
74 9 9.999999729327435E-1
74 10 9.999999901956699E-1
74 16 9.999999814680808E-1
74 19 9.999999711766211E-1
74 21 9.999999823865218E-1
74 29 4.999999698741563E-1
74 45 9.999999943965507E-1
74 60 9.999999755724029E-1
74 63 9.999999973123594E-1
74 64 9.999999686929236E-1
74 76 4.999999806887549E-1
74 97 9.99999996910069E-1
74 106 9.999999964842733E-1
74 121 4.9999994501974676E-1
74 128 9.999999821179484E-1
74 129 9.999999829029891E-1
74 130 9.999999982952887E-1
75 3 4.9999988060692435E-1
75 14 9.99999861049353E-1
75 17 9.999999124713719E-1
75 37 9.999999819817544E-1
75 40 9.999998741594256E-1
75 49 4.999999277203393E-1
75 69 9.999999226557368E-1
75 73 9.999999743974992E-1
75 82 9.99999944791181E-1
75 91 9.999998416762009E-1
75 95 9.999999992246783E-1
75 103 9.999999848421901E-1
75 104 9.999999894523082E-1
75 117 9.999999061127073E-1
75 118 9.999999303450582E-1
76 4 9.999999917717413E-1
76 9 9.999999989661377E-1
76 11 4.9999995560307914E-1
76 16 9.999999832055089E-1
76 19 4.9999998389456063E-1
76 51 4.9999997794032414E-1
76 62 4.999999465072453E-1
76 64 9.999999941546344E-1
76 74 4.999999806887549E-1
76 77 9.999999809720916E-1
76 79 9.999999752709444E-1
76 86 9.999999757091057E-1
76 97 9.999999760376161E-1
76 106 4.999999779503512E-1
76 128 9.999999773165831E-1
76 130 4.99999972513969E-1
77 4 4.999999788241447E-1
77 9 9.999999837589224E-1
77 10 4.999999705966282E-1
77 11 4.9999992435448903E-1
77 16 9.99999996330854E-1
77 19 9.999999963368597E-1
77 21 9.999999732295308E-1
77 23 4.999999778001402E-1
77 30 9.999999774834405E-1
77 48 4.999999663970864E-1
77 51 9.999999880367071E-1
77 56 9.999999692424836E-1
77 62 4.999998996863699E-1
77 64 9.999999961220204E-1
77 72 4.9999998032435566E-1
77 76 9.999999809720916E-1
77 79 9.999999993905985E-1
77 80 4.9999998045267247E-1
77 86 9.999999975002254E-1
77 97 9.999999799884728E-1
77 106 9.9999997158271E-1
77 108 4.999999594794285E-1
77 128 9.999999954030878E-1
78 2 4.9999993098635737E-1
78 3 9.999999021122882E-1
78 20 9.999999602503142E-1
78 31 9.999999610896962E-1
78 55 4.999999330560112E-1
78 61 4.999999370137713E-1
78 84 4.9999993631983686E-1
78 85 4.999999575003749E-1
78 93 9.999999705872448E-1
78 109 9.999999577531572E-1
78 110 9.999998718494025E-1
78 113 4.999999421425516E-1
78 114 9.999999604371732E-1
78 132 9.999999999069531E-1
79 4 4.9999997614980307E-1
79 9 9.999999776174999E-1
79 11 4.999999227422937E-1
79 16 9.999999930736096E-1
79 19 9.999999953708201E-1
79 21 4.999999849127953E-1
79 23 4.999999797239618E-1
79 30 9.999999842786579E-1
79 48 4.999999722487683E-1
79 51 9.99999992412919E-1
79 56 9.99999976849045E-1
79 62 4.9999989486008095E-1
79 64 9.999999929893852E-1
79 66 4.999999596020471E-1
79 72 4.999999848960833E-1
79 76 9.999999752709444E-1
79 77 9.999999993905985E-1
79 80 9.999999700089282E-1
79 86 9.999999988666544E-1
79 97 4.999999865417898E-1
79 108 4.9999996518647405E-1
79 128 9.999999924474668E-1
80 19 4.999999760104315E-1
80 23 4.99999972243383E-1
80 30 9.999999972049395E-1
80 34 4.999999704547976E-1
80 41 4.999999437685862E-1
80 44 9.99999944603632E-1
80 47 4.9999993716993146E-1
80 48 9.99999994626399E-1
80 51 9.999999903377799E-1
80 56 9.999999978153185E-1
80 66 9.999999804970344E-1
80 70 4.9999993780795216E-1
80 72 9.999999985579334E-1
80 77 4.9999998045267247E-1
80 79 9.999999700089282E-1
80 86 9.999999753381483E-1
80 90 9.999999870673624E-1
80 101 4.99999968077384E-1
80 108 9.999999815199465E-1
80 111 4.999999553682053E-1
81 2 9.999999931605612E-1
81 5 4.9999998441563026E-1
81 20 4.999999789920958E-1
81 31 4.9999997878905184E-1
81 32 9.999999990025339E-1
81 38 9.999999967579716E-1
81 55 9.999999983516553E-1
81 57 9.999999987147228E-1
81 61 9.999999976439469E-1
81 71 9.999999813089693E-1
81 84 9.999999895930888E-1
81 87 9.999999935348084E-1
81 93 4.9999997323638645E-1
81 113 9.99999991052315E-1
81 120 9.999999786267317E-1
81 124 9.999999998030386E-1
81 126 9.99999992201171E-1
81 131 9.999999923090938E-1
82 17 9.999999922246031E-1
82 23 4.99999969561712E-1
82 26 9.999998970581344E-1
82 29 4.999999483469183E-1
82 37 4.99999934655431E-1
82 40 4.9999991593136384E-1
82 44 9.999999330947196E-1
82 49 9.999999789041606E-1
82 60 4.9999995189439955E-1
82 73 4.999999221886904E-1
82 75 9.99999944791181E-1
82 91 4.9999986737755076E-1
82 95 9.999999407662992E-1
82 103 9.999999005892807E-1
82 104 9.999999824630367E-1
82 111 9.999999496905264E-1
82 117 9.999999525877943E-1
82 118 9.99999999019911E-1
83 7 9.999999703574172E-1
83 24 4.999999680761153E-1
83 27 9.999999711977012E-1
83 36 9.99999989948733E-1
83 39 9.999999938406046E-1
83 42 4.999999736490942E-1
83 43 9.999999676914622E-1
83 65 9.999999855035696E-1
83 68 9.999999969149395E-1
83 71 4.999999756705044E-1
83 105 9.999999859756687E-1
83 107 4.9999995015583404E-1
83 112 9.99999991071239E-1
83 115 9.999999910428609E-1
83 122 9.999999925544164E-1
83 125 9.999999989526707E-1
84 2 9.999999995446843E-1
84 8 4.999999659027917E-1
84 12 9.9999998116763E-1
84 20 4.9999998374322824E-1
84 31 4.9999998596176415E-1
84 32 9.999999941517694E-1
84 38 4.9999998892743963E-1
84 53 4.99999893806208E-1
84 55 9.99999994889255E-1
84 57 9.999999812077984E-1
84 58 9.999999768977319E-1
84 61 9.999999939329826E-1
84 78 4.9999993631983686E-1
84 81 9.999999895930888E-1
84 85 4.9999998660809036E-1
84 93 4.9999998067036644E-1
84 100 4.999999726739472E-1
84 113 9.999999994293137E-1
84 116 4.9999996892569776E-1
84 120 4.9999998669718027E-1
84 124 9.999999908002773E-1
84 126 9.999999883899279E-1
84 131 4.9999998769726445E-1
84 132 4.999999331666285E-1
85 2 4.9999998290622527E-1
85 8 9.999999814618012E-1
85 12 9.999999738349878E-1
85 20 9.999999562368491E-1
85 31 9.999999668199466E-1
85 53 4.999999284950568E-1
85 55 4.999999744342049E-1
85 58 9.999999840796835E-1
85 61 4.999999744049599E-1
85 69 4.999999231046861E-1
85 78 4.999999575003749E-1
85 84 4.9999998660809036E-1
85 93 9.999999597588048E-1
85 100 9.999999532733999E-1
85 109 4.999999087804371E-1
85 110 9.999999510542062E-1
85 113 4.999999857824897E-1
85 114 4.9999989716672727E-1
85 116 9.999999707624806E-1
85 132 4.9999995464239194E-1
86 4 4.9999997918854605E-1
86 9 9.99999975930463E-1
86 11 4.9999993253384717E-1
86 16 9.999999878507043E-1
86 19 9.999999896569775E-1
86 30 9.999999866947687E-1
86 48 4.999999772492334E-1
86 51 9.999999961383806E-1
86 56 9.999999833806126E-1
86 62 4.999999033570087E-1
86 64 9.999999916646324E-1
86 66 4.999999669363064E-1
86 72 9.999999728704209E-1
86 76 9.999999757091057E-1
86 77 9.999999975002254E-1
86 79 9.999999988666544E-1
86 80 9.999999753381483E-1
86 90 4.9999996403989666E-1
86 97 4.9999998180554134E-1
86 101 4.9999994120960484E-1
86 108 4.99999972393868E-1
86 128 9.999999862010595E-1
87 2 4.999999895170305E-1
87 5 9.999999856704747E-1
87 18 9.999999864751592E-1
87 25 4.999999870705365E-1
87 32 9.999999916199659E-1
87 38 9.9999999939634E-1
87 55 9.999999856145353E-1
87 57 9.999999948600781E-1
87 61 9.999999833764898E-1
87 71 9.999999968103114E-1
87 81 9.999999935348084E-1
87 92 9.999999799193509E-1
87 120 9.999999870123968E-1
87 124 9.999999911260274E-1
87 126 9.99999992335527E-1
87 131 9.999999991372371E-1
88 1 9.999999885745476E-1
88 5 9.999999893642273E-1
88 6 9.99999977502519E-1
88 15 4.9999996834893073E-1
88 18 9.999999882047104E-1
88 25 9.999999957240034E-1
88 42 9.999999965965956E-1
88 46 4.9999977111646043E-1
88 67 9.99999960460447E-1
88 71 4.9999997997019124E-1
88 92 9.999999926476163E-1
88 94 4.999999263519539E-1
88 99 4.999999619727892E-1
88 107 4.999999550223041E-1
88 115 4.999999808218314E-1
88 120 9.999999815079745E-1
88 123 9.99999999999998E-1
88 126 4.9999998039485233E-1
88 131 4.999999804064201E-1
89 6 4.9999981726420284E-1
89 8 4.999998550269605E-1
89 15 4.9999986041348465E-1
89 37 4.9999981804922444E-1
89 40 4.9999986981693195E-1
89 53 9.9999990803811E-1
89 58 4.999998124253066E-1
89 69 4.9999987837307375E-1
89 73 4.9999984885499094E-1
89 91 9.999998630850528E-1
89 94 9.999998300901561E-1
89 100 4.999998559052916E-1
89 110 4.9999983234252626E-1
89 116 4.999998654895119E-1
90 30 9.99999972684646E-1
90 34 9.99999983262417E-1
90 35 4.9999970757250295E-1
90 41 9.999999355797681E-1
90 44 9.999999313321012E-1
90 47 4.999999522352492E-1
90 48 9.999999958717006E-1
90 51 4.999999786051821E-1
90 52 4.999998991738766E-1
90 56 9.999999798738841E-1
90 66 9.999999904502537E-1
90 70 9.999999400559241E-1
90 72 9.999999839600163E-1
90 80 9.999999870673624E-1
90 86 4.9999996403989666E-1
90 101 9.999999582394543E-1
90 108 9.999999851869534E-1
90 111 4.9999994994184016E-1
91 37 4.9999990411029793E-1
91 40 9.999999802645386E-1
91 53 4.999998608923693E-1
91 69 9.999998113388647E-1
91 73 9.999998388019388E-1
91 75 9.999998416762009E-1
91 82 4.9999986737755076E-1
91 89 9.999998630850528E-1
91 95 9.99999863050092E-1
91 103 4.999998793446081E-1
91 104 4.999999059359618E-1
91 111 4.9999986148051956E-1
91 117 9.999998660807179E-1
91 118 4.9999986182222467E-1
92 1 4.9999998198827594E-1
92 5 9.999999993246124E-1
92 6 9.999999727403796E-1
92 15 4.9999995252259277E-1
92 18 9.999999978124557E-1
92 25 9.999999978698717E-1
92 32 4.9999998425973635E-1
92 38 4.999999873769697E-1
92 42 9.999999913301876E-1
92 67 4.999999621430813E-1
92 71 9.999999823988177E-1
92 87 9.999999799193509E-1
92 88 9.999999926476163E-1
92 94 4.9999990579168313E-1
92 99 4.9999993471804094E-1
92 100 4.999999655874098E-1
92 120 9.99999997183893E-1
92 123 9.99999992641635E-1
92 126 9.999999871028049E-1
92 131 9.999999867688548E-1
93 2 4.9999997841740035E-1
93 3 4.9999988916560945E-1
93 20 9.999999990791715E-1
93 31 9.999999991550258E-1
93 32 4.999999729855273E-1
93 55 4.999999809532972E-1
93 57 4.9999996996714674E-1
93 61 4.9999998311198873E-1
93 78 9.999999705872448E-1
93 81 4.9999997323638645E-1
93 84 4.9999998067036644E-1
93 85 9.999999597588048E-1
93 109 4.999999311425053E-1
93 113 4.9999998441131605E-1
93 114 4.9999993146369703E-1
93 124 4.9999997638039945E-1
93 132 9.999999679873182E-1
94 1 4.999999523763483E-1
94 6 4.9999996128946683E-1
94 12 4.999999177232665E-1
94 15 9.999999821833593E-1
94 46 4.9999986611018055E-1
94 53 9.999999190904783E-1
94 58 4.9999991195472854E-1
94 67 4.9999990466686994E-1
94 88 4.999999263519539E-1
94 89 9.999998300901561E-1
94 92 4.9999990579168313E-1
94 99 9.999998987571578E-1
94 100 4.9999994782359214E-1
94 116 4.9999992902167195E-1
94 123 4.9999992634989104E-1
95 14 9.999998418425767E-1
95 17 4.99999951945821E-1
95 37 9.999999799103295E-1
95 40 9.99999892082927E-1
95 49 4.999999246992899E-1
95 69 9.999999247259997E-1
95 73 9.999999749556431E-1
95 75 9.999999992246783E-1
95 82 9.999999407662992E-1
95 91 9.99999863050092E-1
95 103 9.999999791776172E-1
95 104 9.999999874925254E-1
95 117 9.999999140480733E-1
95 118 9.999999266040062E-1
96 11 4.9999983910858353E-1
96 22 9.999999414443691E-1
96 28 9.999999722412078E-1
96 35 9.99999746026598E-1
96 47 4.999999187909055E-1
96 50 9.999998761830635E-1
96 52 9.999999281497278E-1
96 54 9.999999828792457E-1
96 59 9.999998975128956E-1
96 101 4.999998707555292E-1
96 102 9.999998212675123E-1
96 108 4.9999980840575065E-1
96 119 9.999999897226215E-1
96 127 9.999998759806633E-1
97 4 4.999999699072177E-1
97 9 9.999999848833734E-1
97 10 9.999999832057254E-1
97 16 9.999999934461452E-1
97 19 9.999999855295345E-1
97 21 9.999999864604284E-1
97 29 4.9999996023615106E-1
97 45 9.999999887051385E-1
97 60 4.9999998418860153E-1
97 62 4.999998879969526E-1
97 63 9.999999921481141E-1
97 64 9.999999847844003E-1
97 74 9.99999996910069E-1
97 76 9.999999760376161E-1
97 77 9.999999799884728E-1
97 79 4.999999865417898E-1
97 86 4.9999998180554134E-1
97 106 9.999999967737446E-1
97 121 4.9999992966069756E-1
97 128 9.999999934352619E-1
97 129 4.9999998778007665E-1
97 130 9.999999929933008E-1
98 1 4.9999984026487493E-1
98 13 9.999998885051283E-1
98 15 4.9999980063170085E-1
98 24 4.9999985953880477E-1
98 33 9.999998987281771E-1
98 42 4.999997972905242E-1
98 46 9.999998820295192E-1
98 67 4.999998987960834E-1
98 99 4.999999164164484E-1
98 105 4.999998121517867E-1
98 107 4.999999346611692E-1
98 112 4.99999833345428E-1
98 115 4.9999980760923923E-1
98 123 4.9999979355911556E-1
99 1 9.999999693450208E-1
99 5 4.999999284526098E-1
99 6 4.9999994969988504E-1
99 15 9.999999472917602E-1
99 18 4.9999992793901976E-1
99 25 4.999999438757656E-1
99 42 4.999999557298785E-1
99 46 4.9999991888832396E-1
99 67 9.999999723789534E-1
99 88 4.999999619727892E-1
99 92 4.9999993471804094E-1
99 94 9.999998987571578E-1
99 98 4.999999164164484E-1
99 107 9.99999961016193E-1
99 115 4.99999933928399E-1
99 123 4.999999619818077E-1
100 2 4.9999997064521384E-1
100 6 9.999999769490998E-1
100 8 9.99999975375159E-1
100 12 9.999999906618255E-1
100 15 9.9999992948056E-1
100 53 9.999999432222985E-1
100 58 9.999999905303382E-1
100 84 4.999999726739472E-1
100 85 9.999999532733999E-1
100 89 4.999998559052916E-1
100 92 4.999999655874098E-1
100 94 4.9999994782359214E-1
100 110 4.999999449812981E-1
100 113 4.999999671091612E-1
100 116 9.999999926998288E-1
100 120 4.9999997136040364E-1
100 126 4.9999996952765047E-1
101 11 4.9999992679437283E-1
101 22 4.999997491618533E-1
101 28 9.999998828294537E-1
101 30 4.999999560066362E-1
101 34 9.999999509515318E-1
101 35 4.9999979408889367E-1
101 47 9.999999888814626E-1
101 48 9.999999654318763E-1
101 50 4.999997829181132E-1
101 51 4.999999580254223E-1
101 52 9.999999400946296E-1
101 54 4.999998392415733E-1
101 56 4.99999971854558E-1
101 59 4.9999973934061814E-1
101 66 9.999999864402165E-1
101 70 4.9999993961676675E-1
101 72 4.999999587635288E-1
101 80 4.99999968077384E-1
101 86 4.9999994120960484E-1
101 90 9.999999582394543E-1
101 96 4.999998707555292E-1
101 102 4.999995875793808E-1
101 108 9.99999986104299E-1
101 119 4.9999991464401383E-1
101 127 4.999997498684772E-1
102 11 4.99999655425356E-1
102 22 9.999998426635589E-1
102 28 4.999998314472502E-1
102 35 4.9999965558654597E-1
102 47 4.999996762583156E-1
102 50 9.999998636233719E-1
102 52 4.999997794368125E-1
102 54 9.999997936663527E-1
102 59 9.999999408633783E-1
102 62 4.999996243307478E-1
102 96 9.999998212675123E-1
102 101 4.999995875793808E-1
102 119 9.999997489073209E-1
102 127 9.999999071321606E-1
103 3 9.999998647006221E-1
103 14 9.999999336104615E-1
103 17 4.9999993847157026E-1
103 26 4.999999151545618E-1
103 37 9.999999937313818E-1
103 40 4.999998901434316E-1
103 69 9.999999457166555E-1
103 73 9.999999823454211E-1
103 75 9.999999848421901E-1
103 82 9.999999005892807E-1
103 91 4.999998793446081E-1
103 95 9.999999791776172E-1
103 104 9.999999606846527E-1
103 109 4.999999002847729E-1
103 110 9.999998808990919E-1
103 114 4.9999987231921683E-1
103 117 4.9999990900338787E-1
103 118 4.999999399580431E-1
104 14 4.9999991505955554E-1
104 17 9.999999602437988E-1
104 26 4.999999306876791E-1
104 37 9.99999945858589E-1
104 40 9.999998723270189E-1
104 44 4.999999317796629E-1
104 49 9.999999229180744E-1
104 69 4.9999992749985706E-1
104 73 9.999999310395958E-1
104 75 9.999999894523082E-1
104 82 9.999999824630367E-1
104 91 4.999999059359618E-1
104 95 9.999999874925254E-1
104 103 9.999999606846527E-1
104 111 9.999998968485719E-1
104 117 9.999999418577239E-1
104 118 9.999999740072248E-1
105 7 9.999999927564431E-1
105 13 4.9999994579749385E-1
105 24 9.999999803108222E-1
105 27 9.999999928650226E-1
105 33 4.999999383323548E-1
105 36 9.999999982655088E-1
105 39 9.999999946953718E-1
105 43 9.999999944101197E-1
105 65 9.999999964304064E-1
105 68 9.999999704896951E-1
105 83 9.999999859756687E-1
105 98 4.999998121517867E-1
105 107 9.999999013986222E-1
105 112 9.999999958119251E-1
105 115 9.999999636429855E-1
105 122 9.99999998217694E-1
105 125 9.999999773021493E-1
106 9 4.999999840548915E-1
106 10 9.999999939750304E-1
106 16 9.999999874889396E-1
106 19 9.999999838033433E-1
106 21 9.999999946014669E-1
106 26 4.999999482635377E-1
106 29 4.999999737514576E-1
106 45 9.999999966979759E-1
106 49 4.999999615620916E-1
106 60 9.999999852746989E-1
106 63 9.999999975870982E-1
106 64 9.999999716721737E-1
106 74 9.999999964842733E-1
106 76 4.999999779503512E-1
106 77 9.9999997158271E-1
106 97 9.999999967737446E-1
106 121 4.999999468848483E-1
106 128 9.999999898392902E-1
106 129 9.999999897923624E-1
106 130 9.999999972534426E-1
107 1 9.999999351295649E-1
107 13 9.999999275643219E-1
107 24 4.999999522032777E-1
107 33 9.999999219282898E-1
107 42 4.999999602813434E-1
107 46 4.999998693555224E-1
107 67 9.999999896002498E-1
107 68 4.9999995100553984E-1
107 83 4.9999995015583404E-1
107 88 4.999999550223041E-1
107 98 4.999999346611692E-1
107 99 9.99999961016193E-1
107 105 9.999999013986222E-1
107 112 4.999999666695635E-1
107 115 4.9999996555862647E-1
107 123 4.999999550355364E-1
108 11 4.9999992774548535E-1
108 28 4.9999989671146017E-1
108 30 9.999999680490423E-1
108 34 9.999999573606037E-1
108 35 4.9999972030755296E-1
108 41 4.9999993098822976E-1
108 47 9.999999522378377E-1
108 48 9.999999940929382E-1
108 51 9.999999685706069E-1
108 52 4.9999993818159444E-1
108 54 4.99999766450588E-1
108 56 9.999999855773899E-1
108 66 9.99999998917571E-1
108 70 4.999999427236565E-1
108 72 9.999999704620963E-1
108 77 4.999999594794285E-1
108 79 4.9999996518647405E-1
108 80 9.999999815199465E-1
108 86 4.99999972393868E-1
108 90 9.999999851869534E-1
108 96 4.9999980840575065E-1
108 101 9.99999986104299E-1
108 119 4.999998642085966E-1
109 3 9.99999987234976E-1
109 14 9.99999944576638E-1
109 20 4.999999197584646E-1
109 31 4.999999225732672E-1
109 37 4.9999989017719426E-1
109 69 4.999998851230773E-1
109 73 4.9999987706527205E-1
109 78 9.999999577531572E-1
109 85 4.999999087804371E-1
109 93 4.999999311425053E-1
109 103 4.999999002847729E-1
109 110 4.9999992846881486E-1
109 114 9.999999964039645E-1
109 132 9.999999595706798E-1
110 3 4.999999228616824E-1
110 8 9.999999693571121E-1
110 12 4.9999994279791765E-1
110 14 4.999999239142123E-1
110 31 4.9999993349265254E-1
110 37 9.999999125414432E-1
110 53 9.999998838743036E-1
110 58 4.9999995732939573E-1
110 69 9.999999684896036E-1
110 73 9.999999237294308E-1
110 78 9.999998718494025E-1
110 85 9.999999510542062E-1
110 89 4.9999983234252626E-1
110 100 4.999999449812981E-1
110 103 9.999998808990919E-1
110 109 4.9999992846881486E-1
110 114 4.9999990839749636E-1
110 116 9.999999389720288E-1
110 132 9.999998664280491E-1
111 17 9.999999314550502E-1
111 23 9.999999615577675E-1
111 30 4.999999577219434E-1
111 40 4.9999992412067185E-1
111 41 9.999999235077716E-1
111 44 9.99999995883742E-1
111 49 9.999999689613377E-1
111 56 4.9999994176270723E-1
111 70 4.99999924075522E-1
111 72 4.999999657077819E-1
111 80 4.999999553682053E-1
111 82 9.999999496905264E-1
111 90 4.9999994994184016E-1
111 91 4.9999986148051956E-1
111 104 9.999998968485719E-1
111 117 9.999999734350922E-1
111 118 9.999999611212138E-1
112 7 9.999999778234007E-1
112 13 4.999999486207969E-1
112 24 9.999999722432295E-1
112 27 9.999999781076921E-1
112 33 4.999999415264513E-1
112 36 9.999999924682583E-1
112 39 9.999999900214241E-1
112 43 9.999999806518574E-1
112 65 9.999999872635553E-1
112 67 9.999999348216797E-1
112 68 9.999999815991173E-1
112 83 9.99999991071239E-1
112 98 4.99999833345428E-1
112 105 9.999999958119251E-1
112 107 4.999999666695635E-1
112 115 9.999999809873816E-1
112 122 9.999999944123253E-1
112 125 9.99999985256881E-1
113 2 9.999999990119384E-1
113 8 4.999999620817329E-1
113 12 9.999999743513025E-1
113 20 9.999999748340375E-1
113 31 9.999999781986438E-1
113 32 9.999999943742953E-1
113 38 4.9999998922796696E-1
113 55 9.999999966325626E-1
113 57 9.999999837338834E-1
113 58 4.9999998519334365E-1
113 61 9.999999962926187E-1
113 78 4.999999421425516E-1
113 81 9.99999991052315E-1
113 84 9.999999994293137E-1
113 85 4.999999857824897E-1
113 93 4.9999998441131605E-1
113 100 4.999999671091612E-1
113 114 4.999998572955886E-1
113 116 4.99999964017024E-1
113 124 9.999999926538437E-1
113 126 4.9999999281807833E-1
113 131 4.9999998696997516E-1
113 132 4.999999392075867E-1
114 3 9.999999754148875E-1
114 14 9.999999189139395E-1
114 20 4.9999992068787713E-1
114 31 4.9999992188243025E-1
114 37 4.999998603070368E-1
114 69 4.999998557786493E-1
114 78 9.999999604371732E-1
114 85 4.9999989716672727E-1
114 93 4.9999993146369703E-1
114 103 4.9999987231921683E-1
114 109 9.999999964039645E-1
114 110 4.9999990839749636E-1
114 113 4.999998572955886E-1
114 132 9.999999630929933E-1
115 1 4.999999662947603E-1
115 5 4.99999981368264E-1
115 7 4.9999996613600195E-1
115 18 9.999999707951656E-1
115 25 9.999999728539212E-1
115 27 4.9999996668159086E-1
115 36 9.999999651783666E-1
115 39 9.999999706427568E-1
115 42 9.999999809235021E-1
115 43 4.999999656937028E-1
115 65 4.9999997789649764E-1
115 67 4.999999788641825E-1
115 68 9.999999966874247E-1
115 71 4.999999831639317E-1
115 83 9.999999910428609E-1
115 88 4.999999808218314E-1
115 98 4.9999980760923923E-1
115 99 4.99999933928399E-1
115 105 9.999999636429855E-1
115 107 4.9999996555862647E-1
115 112 9.999999809873816E-1
115 122 9.999999706918403E-1
115 123 9.999999616530229E-1
115 125 9.999999941263285E-1
116 2 4.9999996519357914E-1
116 6 4.99999971866356E-1
116 8 9.999999945624242E-1
116 12 9.999999827425771E-1
116 32 4.9999995105796374E-1
116 53 9.999999533219883E-1
116 58 9.999999903513241E-1
116 69 4.9999993407668164E-1
116 84 4.9999996892569776E-1
116 85 9.999999707624806E-1
116 89 4.999998654895119E-1
116 94 4.9999992902167195E-1
116 100 9.999999926998288E-1
116 110 9.999999389720288E-1
116 113 4.99999964017024E-1
116 120 4.9999995440413886E-1
116 126 4.9999995662943747E-1
117 17 4.999999560222928E-1
117 23 4.999999438379847E-1
117 37 4.999999055751437E-1
117 40 9.99999945621451E-1
117 41 9.999998826967537E-1
117 44 9.999999484168215E-1
117 49 9.999999260248172E-1
117 72 4.999999101431658E-1
117 75 9.999999061127073E-1
117 82 9.999999525877943E-1
117 91 9.999998660807179E-1
117 95 9.999999140480733E-1
117 103 4.9999990900338787E-1
117 104 9.999999418577239E-1
117 111 9.999999734350922E-1
117 118 9.999999560131445E-1
118 17 9.999999924463651E-1
118 21 4.9999995164739386E-1
118 23 9.99999952565342E-1
118 26 4.99999945728068E-1
118 29 4.9999994844994566E-1
118 37 4.999999232302942E-1
118 40 4.999999139547679E-1
118 44 9.99999947758876E-1
118 49 9.999999862441277E-1
118 60 4.9999995547770854E-1
118 73 4.9999991020088785E-1
118 75 9.999999303450582E-1
118 82 9.99999999019911E-1
118 91 4.9999986182222467E-1
118 95 9.999999266040062E-1
118 103 4.999999399580431E-1
118 104 9.999999740072248E-1
118 111 9.999999611212138E-1
118 117 9.999999560131445E-1
118 129 4.999999475891645E-1
119 11 4.999998868074998E-1
119 22 9.999998861410976E-1
119 28 9.999999933747622E-1
119 35 9.999997239233264E-1
119 47 9.999999051855798E-1
119 50 9.999998778511976E-1
119 52 9.999999712565365E-1
119 54 9.999999562115501E-1
119 59 9.999998742534897E-1
119 96 9.999999897226215E-1
119 101 4.9999991464401383E-1
119 102 9.999997489073209E-1
119 108 4.999998642085966E-1
119 127 9.999998641753941E-1
120 1 4.9999997231495785E-1
120 2 4.9999998915554145E-1
120 5 9.999999970804134E-1
120 6 4.9999998473534785E-1
120 12 4.9999998480449526E-1
120 15 4.9999994453605207E-1
120 18 9.999999943468999E-1
120 25 9.999999906149363E-1
120 32 9.999999836167802E-1
120 38 9.999999844546119E-1
120 42 9.999999789228706E-1
120 55 4.99999986165868E-1
120 57 4.9999998654710487E-1
120 58 4.99999976116521E-1
120 71 9.999999838761872E-1
120 81 9.999999786267317E-1
120 84 4.9999998669718027E-1
120 87 9.999999870123968E-1
120 88 9.999999815079745E-1
120 92 9.99999997183893E-1
120 100 4.9999997136040364E-1
120 116 4.9999995440413886E-1
120 123 9.999999814974456E-1
120 124 4.9999998762841463E-1
120 126 9.999999961325006E-1
120 131 9.99999992841837E-1
121 10 4.999999691645155E-1
121 14 4.999999185128239E-1
121 17 4.9999995442359174E-1
121 21 4.999999456721532E-1
121 26 9.999999961948928E-1
121 29 9.999999889266035E-1
121 45 4.9999996364426214E-1
121 49 4.99999929330464E-1
121 60 4.999999753253338E-1
121 63 4.999999589320224E-1
121 74 4.9999994501974676E-1
121 97 4.9999992966069756E-1
121 106 4.999999468848483E-1
121 129 4.999999734292309E-1
121 130 4.999999570548596E-1
122 7 9.999999920627877E-1
122 13 4.9999993163941453E-1
122 24 9.999999668054244E-1
122 27 9.999999924193699E-1
122 33 4.9999992329877896E-1
122 36 9.999999997575657E-1
122 39 9.999999990172355E-1
122 43 9.999999912577124E-1
122 65 9.999999982711139E-1
122 68 9.999999799065079E-1
122 71 4.9999995376567447E-1
122 83 9.999999925544164E-1
122 105 9.99999998217694E-1
122 112 9.999999944123253E-1
122 115 9.999999706918403E-1
122 125 9.999999860035556E-1
123 1 9.999999885795945E-1
123 5 9.999999893583277E-1
123 6 9.999999774933757E-1
123 15 4.9999996834823623E-1
123 18 9.999999882002446E-1
123 25 9.999999957220234E-1
123 42 9.999999965988379E-1
123 46 4.999997711366493E-1
123 67 9.999999604779248E-1
123 71 4.999999799668178E-1
123 88 9.99999999999998E-1
123 92 9.99999992641635E-1
123 94 4.9999992634989104E-1
123 98 4.9999979355911556E-1
123 99 4.999999619818077E-1
123 107 4.999999550355364E-1
123 115 9.999999616530229E-1
123 120 9.999999814974456E-1
123 126 4.9999998038730364E-1
123 131 4.9999998040068355E-1
124 2 9.999999938967853E-1
124 20 4.9999998176994614E-1
124 31 4.999999815612851E-1
124 32 9.999999987891076E-1
124 38 9.999999950379156E-1
124 55 9.999999991645836E-1
124 57 9.999999982496319E-1
124 61 9.999999987735442E-1
124 71 9.999999773862326E-1
124 81 9.999999998030386E-1
124 84 9.999999908002773E-1
124 87 9.999999911260274E-1
124 93 4.9999997638039945E-1
124 113 9.999999926538437E-1
124 120 4.9999998762841463E-1
124 126 9.999999904388445E-1
124 131 9.999999896747604E-1
125 7 9.999999589032287E-1
125 24 4.999999598352258E-1
125 27 9.99999959938258E-1
125 36 9.999999826060614E-1
125 39 9.999999884417302E-1
125 42 4.9999997912800653E-1
125 43 9.999999552273305E-1
125 65 9.999999772929583E-1
125 67 4.9999996161661825E-1
125 68 9.999999993599262E-1
125 71 4.999999822259696E-1
125 83 9.999999989526707E-1
125 105 9.999999773021493E-1
125 112 9.99999985256881E-1
125 115 9.999999941263285E-1
125 122 9.999999860035556E-1
126 2 9.999999920236047E-1
126 5 9.99999988696855E-1
126 6 4.9999997598244994E-1
126 8 4.9999994586582724E-1
126 12 4.999999866764126E-1
126 18 4.9999999274732365E-1
126 25 4.999999882278464E-1
126 32 9.99999995593539E-1
126 38 9.999999926494139E-1
126 42 4.999999796008532E-1
126 55 9.999999891157695E-1
126 57 9.999999872492277E-1
126 58 4.999999797933715E-1
126 61 9.999999860888926E-1
126 71 4.999999919162888E-1
126 81 9.99999992201171E-1
126 84 9.999999883899279E-1
126 87 9.99999992335527E-1
126 88 4.9999998039485233E-1
126 92 9.999999871028049E-1
126 100 4.9999996952765047E-1
126 113 4.9999999281807833E-1
126 116 4.9999995662943747E-1
126 120 9.999999961325006E-1
126 123 4.9999998038730364E-1
126 124 9.999999904388445E-1
126 131 9.999999958751685E-1
127 4 4.999997173783475E-1
127 11 4.9999985200682934E-1
127 22 9.999997530831092E-1
127 28 9.99999802717861E-1
127 47 4.9999981094712626E-1
127 50 9.999999955573974E-1
127 52 4.99999882384315E-1
127 54 9.999997876279533E-1
127 59 9.999999953328513E-1
127 62 4.999998397611701E-1
127 96 9.999998759806633E-1
127 101 4.999997498684772E-1
127 102 9.999999071321606E-1
127 119 9.999998641753941E-1
128 4 4.999999722840577E-1
128 9 9.999999839388425E-1
128 10 4.999999846650565E-1
128 16 9.999999995546165E-1
128 19 9.999999982384661E-1
128 21 9.999999888599767E-1
128 23 4.9999998041916305E-1
128 30 4.9999997955239267E-1
128 45 4.999999875702847E-1
128 51 4.999999848887896E-1
128 60 4.999999790693965E-1
128 62 4.999998863249599E-1
128 63 9.999999777854048E-1
128 64 9.99999992940874E-1
128 74 9.999999821179484E-1
128 76 9.999999773165831E-1
128 77 9.999999954030878E-1
128 79 9.999999924474668E-1
128 86 9.999999862010595E-1
128 97 9.999999934352619E-1
128 106 9.999999898392902E-1
128 129 4.9999998167744203E-1
128 130 9.999999776429425E-1
129 10 9.999999989375639E-1
129 16 4.999999785932088E-1
129 17 4.9999996842699035E-1
129 19 4.9999997914764577E-1
129 21 9.999999893730803E-1
129 26 9.999999510578963E-1
129 29 9.999999832096168E-1
129 45 9.999999968709377E-1
129 49 4.9999997020897996E-1
129 60 9.999999992781708E-1
129 63 9.999999937383223E-1
129 74 9.999999829029891E-1
129 97 4.9999998778007665E-1
129 106 9.999999897923624E-1
129 118 4.999999475891645E-1
129 121 4.999999734292309E-1
129 128 4.9999998167744203E-1
129 130 9.999999917674597E-1
130 9 9.999999590705699E-1
130 10 9.999999965866194E-1
130 16 9.999999752913771E-1
130 19 4.999999839606539E-1
130 21 9.9999998651236E-1
130 26 4.999999557260732E-1
130 29 9.999999581363309E-1
130 45 9.999999987678173E-1
130 60 9.999999863256056E-1
130 63 9.99999999849845E-1
130 74 9.999999982952887E-1
130 76 4.99999972513969E-1
130 97 9.999999929933008E-1
130 106 9.999999972534426E-1
130 121 4.999999570548596E-1
130 128 9.999999776429425E-1
130 129 9.999999917674597E-1
131 2 4.999999907763803E-1
131 5 9.999999910050984E-1
131 18 9.999999908682504E-1
131 25 4.999999903554953E-1
131 32 9.999999921879344E-1
131 38 9.999999980680814E-1
131 42 4.999999832496149E-1
131 55 9.999999848734501E-1
131 57 9.999999918353959E-1
131 61 9.999999820164014E-1
131 71 9.999999958682139E-1
131 81 9.999999923090938E-1
131 84 4.9999998769726445E-1
131 87 9.999999991372371E-1
131 88 4.999999804064201E-1
131 92 9.999999867688548E-1
131 113 4.9999998696997516E-1
131 120 9.99999992841837E-1
131 123 4.9999998040068355E-1
131 124 9.999999896747604E-1
131 126 9.999999958751685E-1
132 2 4.9999992777438534E-1
132 3 9.999999041650687E-1
132 14 4.9999991293797863E-1
132 20 9.999999574119287E-1
132 31 9.999999579391784E-1
132 55 4.9999993018246197E-1
132 61 4.9999993427221784E-1
132 78 9.999999999069531E-1
132 84 4.999999331666285E-1
132 85 4.9999995464239194E-1
132 93 9.999999679873182E-1
132 109 9.999999595706798E-1
132 110 9.999998664280491E-1
132 113 4.999999392075867E-1
132 114 9.999999630929933E-1
