%%MatrixMarket matrix coordinate real general
%
132 132 1030
1 6 9.999999738527838E-1
1 15 4.9999998441835997E-1
1 25 4.999999853200753E-1
1 42 4.999999892951331E-1
1 67 9.999999751363734E-1
1 88 9.999999885745476E-1
1 94 4.999999523763483E-1
1 99 4.999999846725104E-1
1 107 4.9999996756478243E-1
1 123 9.999999885795945E-1
2 12 4.99999989361823E-1
2 32 9.999999969063911E-1
2 55 9.999999967533914E-1
2 61 9.999999956227412E-1
2 84 9.999999995446843E-1
2 113 9.999999990119384E-1
2 124 4.9999999694839264E-1
3 14 9.999999834207993E-1
3 78 4.999999510561441E-1
3 103 4.9999993235031104E-1
3 109 9.99999987234976E-1
3 114 9.999999754148875E-1
3 132 4.9999995208253434E-1
4 9 9.99999985023455E-1
4 11 9.999999568172099E-1
4 62 4.9999997050055506E-1
4 64 4.9999998826823444E-1
4 76 9.999999917717413E-1
4 77 4.999999788241447E-1
4 86 4.9999997918854605E-1
5 18 9.999999994288492E-1
5 25 9.999999977362155E-1
5 42 9.999999908215806E-1
5 71 4.9999999429199E-1
5 88 4.9999999468211365E-1
5 92 9.999999993246124E-1
5 120 9.999999970804134E-1
5 123 4.9999999467916384E-1
5 131 4.999999955025492E-1
6 1 9.999999738527838E-1
6 15 9.999999719701339E-1
6 88 4.999999887512595E-1
6 92 4.999999863701898E-1
6 94 4.9999996128946683E-1
6 100 9.999999769490998E-1
6 123 4.9999998874668783E-1
7 24 4.9999998645119903E-1
7 27 9.999999999900395E-1
7 36 9.999999945770742E-1
7 43 9.999999990278412E-1
7 65 9.999999972883313E-1
7 105 4.9999999637822157E-1
7 122 4.9999999603139383E-1
8 12 4.9999998481945024E-1
8 53 4.9999996981133416E-1
8 58 9.999999831272756E-1
8 85 9.999999814618012E-1
8 100 9.99999975375159E-1
8 110 9.999999693571121E-1
8 116 9.999999945624242E-1
9 4 9.99999985023455E-1
9 11 4.999999455647761E-1
9 16 4.999999943443197E-1
9 62 4.9999993690668254E-1
9 64 9.999999956544925E-1
9 76 9.999999989661377E-1
9 97 4.999999924416867E-1
9 128 4.9999999196942124E-1
10 21 4.99999994773636E-1
10 26 4.9999996987107226E-1
10 29 4.9999998837811144E-1
10 45 9.999999994017724E-1
10 60 9.999999964831671E-1
10 63 9.999999977743942E-1
10 74 4.9999999509783494E-1
10 106 4.999999969875152E-1
10 121 4.999999691645155E-1
10 129 9.999999989375639E-1
10 130 9.999999965866194E-1
11 4 9.999999568172099E-1
11 9 4.999999455647761E-1
11 62 9.999999825000828E-1
11 64 4.9999993883363186E-1
11 76 4.9999995560307914E-1
11 86 4.9999993253384717E-1
12 2 4.99999989361823E-1
12 8 4.9999998481945024E-1
12 58 9.999999978738399E-1
12 84 4.99999990583815E-1
12 85 4.999999869174939E-1
12 100 9.999999906618255E-1
12 113 4.9999998717565125E-1
12 116 9.999999827425771E-1
13 24 4.9999997759031417E-1
13 33 9.999999995181058E-1
13 98 9.999998885051283E-1
13 105 4.9999994579749385E-1
13 107 9.999999275643219E-1
13 112 4.999999486207969E-1
14 3 9.999999834207993E-1
14 37 4.9999995188956153E-1
14 73 4.99999936929472E-1
14 103 4.9999996680523073E-1
14 109 9.99999944576638E-1
14 114 9.999999189139395E-1
15 1 4.9999998441835997E-1
15 6 9.999999719701339E-1
15 46 4.999998575222017E-1
15 88 4.9999996834893073E-1
15 94 9.999999821833593E-1
15 99 9.999999472917602E-1
15 123 4.9999996834823623E-1
16 9 4.999999943443197E-1
16 19 9.999999968267398E-1
16 64 9.999999959306458E-1
16 76 4.9999999160275443E-1
16 77 9.99999996330854E-1
16 79 9.999999930736096E-1
16 86 4.9999999392535216E-1
16 97 9.999999934461452E-1
16 128 9.999999995546165E-1
17 23 4.999999777067843E-1
17 26 4.9999997009682057E-1
17 49 9.999999863232887E-1
17 60 4.9999997473718544E-1
17 82 9.999999922246031E-1
17 104 9.999999602437988E-1
17 118 9.999999924463651E-1
18 5 9.999999994288492E-1
18 25 9.999999980042912E-1
18 42 9.999999923290869E-1
18 71 9.999999914338261E-1
18 92 9.999999978124557E-1
18 120 9.999999943468999E-1
19 16 9.999999968267398E-1
19 21 4.999999944169436E-1
19 23 4.999999867575493E-1
19 64 4.9999999446041127E-1
19 77 9.999999963368597E-1
19 79 9.999999953708201E-1
19 86 9.999999896569775E-1
19 128 9.999999982384661E-1
20 31 9.999999992456443E-1
20 55 4.9999998547880836E-1
20 61 4.999999874631753E-1
20 78 4.999999801251571E-1
20 84 4.9999998374322824E-1
20 93 9.999999990791715E-1
20 113 4.9999998741701873E-1
20 132 4.9999997870596435E-1
21 10 4.99999994773636E-1
21 19 4.999999944169436E-1
21 23 4.999999885336289E-1
21 45 4.9999999513344556E-1
21 60 4.999999942201725E-1
21 106 9.999999946014669E-1
21 128 4.999999944299883E-1
21 129 4.9999999468654016E-1
22 28 4.999999283324819E-1
22 35 9.999998096120106E-1
22 54 9.999999800076437E-1
22 96 9.999999414443691E-1
22 102 9.999998426635589E-1
22 119 9.999998861410976E-1
23 17 4.999999777067843E-1
23 19 4.999999867575493E-1
23 21 4.999999885336289E-1
23 30 4.999999810105661E-1
23 44 9.999999754860258E-1
23 49 9.999999896142922E-1
23 111 9.999999615577675E-1
24 7 4.9999998645119903E-1
24 13 4.9999997759031417E-1
24 27 4.999999860742409E-1
24 33 4.9999997285830944E-1
24 36 4.999999842121636E-1
24 43 4.999999910949353E-1
24 105 4.999999901554111E-1
24 112 4.999999861216147E-1
25 1 4.999999853200753E-1
25 5 9.999999977362155E-1
25 18 9.999999980042912E-1
25 42 9.999999976347869E-1
25 88 9.999999957240034E-1
25 92 9.999999978698717E-1
25 115 4.999999864269606E-1
25 120 4.9999999530746814E-1
25 123 9.999999957220234E-1
26 10 4.9999996987107226E-1
26 17 4.9999997009682057E-1
26 29 9.999999913210721E-1
26 60 4.9999997873601243E-1
26 121 9.999999961948928E-1
26 129 4.9999997552894815E-1
27 7 9.999999999900395E-1
27 24 4.999999860742409E-1
27 36 9.999999948783922E-1
27 39 4.99999995658057E-1
27 43 9.999999988725511E-1
27 65 9.99999997552966E-1
27 105 4.999999964325113E-1
27 122 4.9999999620968494E-1
28 22 4.999999283324819E-1
28 35 4.9999988078566293E-1
28 47 9.999999437912115E-1
28 50 4.9999991207208516E-1
28 52 9.999999881332458E-1
28 54 9.999999426886218E-1
28 96 9.999999722412078E-1
28 101 4.9999994141472687E-1
28 119 9.999999933747622E-1
28 127 4.999999013589305E-1
29 10 4.9999998837811144E-1
29 26 9.999999913210721E-1
29 45 4.999999845311925E-1
29 60 4.999999930491854E-1
29 121 9.999999889266035E-1
29 129 4.999999916048084E-1
30 23 4.999999810105661E-1
30 44 4.9999997430387794E-1
30 48 4.9999999219510227E-1
30 51 9.999999953989007E-1
30 56 9.999999960997961E-1
30 72 9.999999975613261E-1
30 80 9.999999972049395E-1
30 86 4.999999933473844E-1
31 20 9.999999992456443E-1
31 55 4.99999985777947E-1
31 61 4.999999875450727E-1
31 78 4.999999805448481E-1
31 84 4.9999998596176415E-1
31 93 9.999999991550258E-1
31 113 4.999999890993219E-1
31 132 4.999999789695892E-1
32 2 9.999999969063911E-1
32 38 4.999999973674119E-1
32 55 9.9999999849994E-1
32 57 4.9999999777309134E-1
32 61 9.999999972898002E-1
32 81 9.999999990025339E-1
32 84 4.999999970758847E-1
32 113 4.9999999718714766E-1
32 124 9.999999987891076E-1
32 126 9.99999995593539E-1
33 13 9.999999995181058E-1
33 24 4.9999997285830944E-1
33 98 9.999998987281771E-1
33 105 4.999999383323548E-1
33 107 4.999999609641449E-1
33 112 4.999999415264513E-1
34 41 9.999999597432442E-1
34 48 4.999999828278069E-1
34 66 4.999999849298145E-1
34 70 9.999999823508572E-1
34 90 9.99999983262417E-1
34 101 4.999999754757659E-1
34 108 4.999999786803018E-1
35 22 9.999998096120106E-1
35 28 4.9999988078566293E-1
35 52 4.99999846891496E-1
35 54 9.999998413413632E-1
35 96 4.99999873013299E-1
35 119 4.999998619616632E-1
36 7 9.999999945770742E-1
36 24 4.999999842121636E-1
36 27 9.999999948783922E-1
36 39 9.99999998836478E-1
36 43 4.9999999681687657E-1
36 65 9.999999992866215E-1
36 105 9.999999982655088E-1
36 112 4.9999999623412916E-1
36 122 9.999999997575657E-1
37 14 4.9999995188956153E-1
37 69 9.999999745385219E-1
37 73 9.999999970940325E-1
37 75 9.999999819817544E-1
37 95 9.999999799103295E-1
37 103 9.999999937313818E-1
37 104 4.999999729292945E-1
38 32 4.999999973674119E-1
38 57 9.999999977014671E-1
38 71 4.999999968009292E-1
38 81 9.999999967579716E-1
38 87 9.9999999939634E-1
38 124 9.999999950379156E-1
38 126 4.9999999632470693E-1
38 131 9.999999980680814E-1
39 27 4.99999995658057E-1
39 36 9.99999998836478E-1
39 65 9.999999980649069E-1
39 68 4.999999912164708E-1
39 83 9.999999938406046E-1
39 105 9.999999946953718E-1
39 112 4.999999950107121E-1
39 122 9.999999990172355E-1
39 125 4.999999942208651E-1
40 75 4.999999370797128E-1
40 89 4.9999986981693195E-1
40 91 9.999999802645386E-1
40 95 4.999999460414635E-1
40 104 4.9999993616350946E-1
40 111 4.9999992412067185E-1
40 117 9.99999945621451E-1
41 34 9.999999597432442E-1
41 44 4.999999630892214E-1
41 48 4.999999500222439E-1
41 70 9.999999830478239E-1
41 90 4.9999996778988404E-1
41 111 4.999999617538858E-1
42 1 4.999999892951331E-1
42 5 9.999999908215806E-1
42 18 9.999999923290869E-1
42 25 9.999999976347869E-1
42 67 4.999999825476857E-1
42 88 9.999999965965956E-1
42 92 4.999999956650938E-1
42 115 4.9999999046175103E-1
42 123 9.999999965988379E-1
43 7 9.999999990278412E-1
43 24 4.999999910949353E-1
43 27 9.999999988725511E-1
43 36 4.9999999681687657E-1
43 65 4.9999999775820847E-1
43 105 9.999999944101197E-1
43 122 4.999999956288562E-1
44 23 9.999999754860258E-1
44 30 4.9999997430387794E-1
44 41 4.999999630892214E-1
44 49 9.999999705548313E-1
44 72 4.99999980361669E-1
44 111 9.99999995883742E-1
44 117 9.999999484168215E-1
45 10 9.999999994017724E-1
45 21 4.9999999513344556E-1
45 29 4.999999845311925E-1
45 60 4.9999999664712935E-1
45 63 9.999999994605772E-1
45 74 9.999999943965507E-1
45 106 9.999999966979759E-1
45 121 4.9999996364426214E-1
45 129 9.999999968709377E-1
45 130 9.999999987678173E-1
46 15 4.999998575222017E-1
46 67 4.999998514229702E-1
46 94 4.9999986611018055E-1
46 98 9.999998820295192E-1
46 99 4.9999991888832396E-1
46 107 4.999998693555224E-1
47 28 9.999999437912115E-1
47 48 4.999999578451625E-1
47 52 9.999999802621262E-1
47 66 4.9999997549174224E-1
47 101 9.999999888814626E-1
47 108 4.9999997611891883E-1
47 119 4.999999525927899E-1
48 30 4.9999999219510227E-1
48 34 4.999999828278069E-1
48 41 4.999999500222439E-1
48 47 4.999999578451625E-1
48 56 9.999999928766352E-1
48 66 9.999999951389408E-1
48 70 4.9999995273763354E-1
48 72 9.999999893969613E-1
48 80 9.99999994626399E-1
48 90 9.999999958717006E-1
48 101 4.9999998271593815E-1
48 108 9.999999940929382E-1
49 17 9.999999863232887E-1
49 23 9.999999896142922E-1
49 44 9.999999705548313E-1
49 82 9.999999789041606E-1
49 111 9.999999689613377E-1
49 118 9.999999862441277E-1
50 28 4.9999991207208516E-1
50 59 9.999999837797307E-1
50 96 4.9999993809153176E-1
50 102 9.999998636233719E-1
50 119 4.999999389255988E-1
50 127 9.999999955573974E-1
51 30 9.999999953989007E-1
51 56 9.999999955411217E-1
51 72 4.999999935265301E-1
51 77 4.9999999401835354E-1
51 79 4.999999962064595E-1
51 80 9.999999903377799E-1
51 86 9.999999961383806E-1
52 28 9.999999881332458E-1
52 35 4.99999846891496E-1
52 47 9.999999802621262E-1
52 54 9.999998788034897E-1
52 96 9.999999281497278E-1
52 101 4.999999700473148E-1
52 119 9.999999712565365E-1
53 8 4.9999996981133416E-1
53 58 4.9999995217530524E-1
53 89 9.9999990803811E-1
53 94 9.999999190904783E-1
53 100 4.9999997161114923E-1
53 116 9.999999533219883E-1
54 22 9.999999800076437E-1
54 28 9.999999426886218E-1
54 35 9.999998413413632E-1
54 52 9.999998788034897E-1
54 59 4.9999991309932396E-1
54 96 9.999999828792457E-1
54 102 4.9999989683317636E-1
54 119 9.999999562115501E-1
55 2 9.999999967533914E-1
55 20 4.9999998547880836E-1
55 31 4.99999985777947E-1
55 32 9.9999999849994E-1
55 57 4.9999999753950414E-1
55 61 9.999999998127163E-1
55 81 9.999999983516553E-1
55 84 4.999999974446275E-1
55 113 9.999999966325626E-1
55 124 9.999999991645836E-1
56 30 9.999999960997961E-1
56 48 9.999999928766352E-1
56 51 9.999999955411217E-1
56 66 4.999999909327641E-1
56 72 9.999999936232922E-1
56 80 9.999999978153185E-1
56 108 9.999999855773899E-1
57 32 4.9999999777309134E-1
57 38 9.999999977014671E-1
57 55 4.9999999753950414E-1
57 71 4.999999924110022E-1
57 81 9.999999987147228E-1
57 87 9.999999948600781E-1
57 124 9.999999982496319E-1
58 8 9.999999831272756E-1
58 12 9.999999978738399E-1
58 53 4.9999995217530524E-1
58 84 4.9999998844886595E-1
58 85 9.999999840796835E-1
58 100 9.999999905303382E-1
58 110 4.9999995732939573E-1
58 116 9.999999903513241E-1
59 50 9.999999837797307E-1
59 54 4.9999991309932396E-1
59 96 9.999998975128956E-1
59 102 9.999999408633783E-1
59 119 4.9999993712674484E-1
59 127 9.999999953328513E-1
60 10 9.999999964831671E-1
60 17 4.9999997473718544E-1
60 21 4.999999942201725E-1
60 26 4.9999997873601243E-1
60 29 4.999999930491854E-1
60 45 4.9999999664712935E-1
60 63 4.999999944770126E-1
60 121 4.999999753253338E-1
60 129 9.999999992781708E-1
60 130 4.999999931628028E-1
61 2 9.999999956227412E-1
61 20 4.999999874631753E-1
61 31 4.999999875450727E-1
61 32 9.999999972898002E-1
61 55 9.999999998127163E-1
61 81 9.999999976439469E-1
61 84 4.999999969664913E-1
61 93 4.9999998311198873E-1
61 113 9.999999962926187E-1
61 124 9.999999987735442E-1
62 4 4.9999997050055506E-1
62 9 4.9999993690668254E-1
62 11 9.999999825000828E-1
62 64 4.9999992165262347E-1
62 76 4.999999465072453E-1
62 86 4.999999033570087E-1
63 10 9.999999977743942E-1
63 45 9.999999994605772E-1
63 60 4.999999944770126E-1
63 74 9.999999973123594E-1
63 97 4.9999999607405704E-1
63 106 9.999999975870982E-1
63 129 9.999999937383223E-1
63 130 9.99999999849845E-1
64 4 4.9999998826823444E-1
64 9 9.999999956544925E-1
64 11 4.9999993883363186E-1
64 16 9.999999959306458E-1
64 19 4.9999999446041127E-1
64 62 4.9999992165262347E-1
64 76 9.999999941546344E-1
64 77 9.999999961220204E-1
64 79 9.999999929893852E-1
64 86 4.999999958323162E-1
64 128 9.99999992940874E-1
65 7 9.999999972883313E-1
65 27 9.99999997552966E-1
65 36 9.999999992866215E-1
65 39 9.999999980649069E-1
65 43 4.9999999775820847E-1
65 105 9.999999964304064E-1
65 112 4.9999999363177766E-1
65 122 9.999999982711139E-1
66 34 4.999999849298145E-1
66 47 4.9999997549174224E-1
66 48 9.999999951389408E-1
66 56 4.999999909327641E-1
66 70 4.9999995327518E-1
66 80 4.999999902485172E-1
66 90 9.999999904502537E-1
66 101 9.999999864402165E-1
66 108 9.99999998917571E-1
67 1 9.999999751363734E-1
67 42 4.999999825476857E-1
67 46 4.999998514229702E-1
67 88 4.999999802302235E-1
67 98 4.999998987960834E-1
67 99 9.999999723789534E-1
67 107 9.999999896002498E-1
67 123 4.999999802389624E-1
68 39 4.999999912164708E-1
68 83 9.999999969149395E-1
68 112 4.9999999079955865E-1
68 115 9.999999966874247E-1
68 122 4.9999998995325395E-1
68 125 9.999999993599262E-1
69 37 9.999999745385219E-1
69 73 9.999999859990815E-1
69 75 4.999999613278684E-1
69 89 4.9999987837307375E-1
69 95 4.999999623629999E-1
69 103 9.999999457166555E-1
69 110 9.999999684896036E-1
70 34 9.999999823508572E-1
70 41 9.999999830478239E-1
70 48 4.9999995273763354E-1
70 66 4.9999995327518E-1
70 90 4.9999997002796204E-1
70 108 4.999999427236565E-1
71 5 4.9999999429199E-1
71 18 9.999999914338261E-1
71 38 4.999999968009292E-1
71 57 4.999999924110022E-1
71 87 9.999999968103114E-1
71 131 9.999999958682139E-1
72 30 9.999999975613261E-1
72 44 4.99999980361669E-1
72 48 9.999999893969613E-1
72 51 4.999999935265301E-1
72 56 9.999999936232922E-1
72 80 9.999999985579334E-1
72 90 9.999999839600163E-1
73 14 4.99999936929472E-1
73 37 9.999999970940325E-1
73 69 9.999999859990815E-1
73 75 9.999999743974992E-1
73 91 4.999999194009694E-1
73 95 9.999999749556431E-1
73 103 9.999999823454211E-1
73 104 4.999999655197979E-1
73 110 4.999999618647154E-1
74 10 4.9999999509783494E-1
74 45 9.999999943965507E-1
74 63 9.999999973123594E-1
74 97 9.99999996910069E-1
74 106 9.999999964842733E-1
74 130 9.999999982952887E-1
75 37 9.999999819817544E-1
75 40 4.999999370797128E-1
75 69 4.999999613278684E-1
75 73 9.999999743974992E-1
75 82 4.999999723955905E-1
75 91 4.9999992083810046E-1
75 95 9.999999992246783E-1
75 103 9.999999848421901E-1
75 104 9.999999894523082E-1
76 4 9.999999917717413E-1
76 9 9.999999989661377E-1
76 11 4.9999995560307914E-1
76 16 4.9999999160275443E-1
76 62 4.999999465072453E-1
76 64 9.999999941546344E-1
76 77 4.999999904860458E-1
76 128 4.9999998865829154E-1
77 4 4.999999788241447E-1
77 16 9.99999996330854E-1
77 19 9.999999963368597E-1
77 51 4.9999999401835354E-1
77 64 9.999999961220204E-1
77 76 4.999999904860458E-1
77 79 9.999999993905985E-1
77 86 9.999999975002254E-1
77 128 9.999999954030878E-1
78 3 4.999999510561441E-1
78 20 4.999999801251571E-1
78 31 4.999999805448481E-1
78 93 9.999999705872448E-1
78 109 9.999999577531572E-1
78 114 9.999999604371732E-1
78 132 9.999999999069531E-1
79 16 9.999999930736096E-1
79 19 9.999999953708201E-1
79 51 4.999999962064595E-1
79 64 9.999999929893852E-1
79 77 9.999999993905985E-1
79 86 9.999999988666544E-1
79 128 9.999999924474668E-1
80 30 9.999999972049395E-1
80 48 9.99999994626399E-1
80 51 9.999999903377799E-1
80 56 9.999999978153185E-1
80 66 4.999999902485172E-1
80 72 9.999999985579334E-1
80 90 9.999999870673624E-1
80 108 4.9999999075997326E-1
81 32 9.999999990025339E-1
81 38 9.999999967579716E-1
81 55 9.999999983516553E-1
81 57 9.999999987147228E-1
81 61 9.999999976439469E-1
81 87 4.999999967674042E-1
81 124 9.999999998030386E-1
81 126 4.999999961005855E-1
81 131 4.999999961545469E-1
82 17 9.999999922246031E-1
82 49 9.999999789041606E-1
82 75 4.999999723955905E-1
82 95 4.999999703831496E-1
82 104 9.999999824630367E-1
82 111 9.999999496905264E-1
82 117 9.999999525877943E-1
82 118 9.99999999019911E-1
83 39 9.999999938406046E-1
83 68 9.999999969149395E-1
83 112 9.99999991071239E-1
83 115 9.999999910428609E-1
83 122 9.999999925544164E-1
83 125 9.999999989526707E-1
84 2 9.999999995446843E-1
84 12 4.99999990583815E-1
84 20 4.9999998374322824E-1
84 31 4.9999998596176415E-1
84 32 4.999999970758847E-1
84 55 4.999999974446275E-1
84 58 4.9999998844886595E-1
84 61 4.999999969664913E-1
84 85 4.9999998660809036E-1
84 113 9.999999994293137E-1
84 124 4.999999954001387E-1
85 8 9.999999814618012E-1
85 12 4.999999869174939E-1
85 58 9.999999840796835E-1
85 84 4.9999998660809036E-1
85 100 4.999999766366999E-1
85 110 4.999999755271031E-1
85 113 4.999999857824897E-1
85 116 9.999999707624806E-1
86 4 4.9999997918854605E-1
86 11 4.9999993253384717E-1
86 16 4.9999999392535216E-1
86 19 9.999999896569775E-1
86 30 4.999999933473844E-1
86 51 9.999999961383806E-1
86 62 4.999999033570087E-1
86 64 4.999999958323162E-1
86 77 9.999999975002254E-1
86 79 9.999999988666544E-1
87 38 9.9999999939634E-1
87 57 9.999999948600781E-1
87 71 9.999999968103114E-1
87 81 4.999999967674042E-1
87 126 9.99999992335527E-1
87 131 9.999999991372371E-1
88 1 9.999999885745476E-1
88 5 4.9999999468211365E-1
88 6 4.999999887512595E-1
88 15 4.9999996834893073E-1
88 25 9.999999957240034E-1
88 42 9.999999965965956E-1
88 67 4.999999802302235E-1
88 92 9.999999926476163E-1
88 99 4.999999619727892E-1
88 123 9.99999999999998E-1
89 40 4.9999986981693195E-1
89 53 9.9999990803811E-1
89 69 4.9999987837307375E-1
89 91 9.999998630850528E-1
89 94 4.9999991504507807E-1
89 116 4.999998654895119E-1
90 34 9.99999983262417E-1
90 41 4.9999996778988404E-1
90 48 9.999999958717006E-1
90 66 9.999999904502537E-1
90 70 4.9999997002796204E-1
90 72 9.999999839600163E-1
90 80 9.999999870673624E-1
90 101 4.9999997911972716E-1
90 108 9.999999851869534E-1
91 40 9.999999802645386E-1
91 73 4.999999194009694E-1
91 75 4.9999992083810046E-1
91 89 9.999998630850528E-1
91 95 4.99999931525046E-1
91 117 4.9999993304035895E-1
92 5 9.999999993246124E-1
92 6 4.999999863701898E-1
92 18 9.999999978124557E-1
92 25 9.999999978698717E-1
92 42 4.999999956650938E-1
92 88 9.999999926476163E-1
92 120 9.99999997183893E-1
92 123 9.99999992641635E-1
93 20 9.999999990791715E-1
93 31 9.999999991550258E-1
93 61 4.9999998311198873E-1
93 78 9.999999705872448E-1
93 109 4.999999311425053E-1
93 113 4.9999998441131605E-1
93 114 4.9999993146369703E-1
93 132 9.999999679873182E-1
94 1 4.999999523763483E-1
94 6 4.9999996128946683E-1
94 15 9.999999821833593E-1
94 46 4.9999986611018055E-1
94 53 9.999999190904783E-1
94 89 4.9999991504507807E-1
94 99 4.999999493785789E-1
94 100 4.9999994782359214E-1
95 37 9.999999799103295E-1
95 40 4.999999460414635E-1
95 69 4.999999623629999E-1
95 73 9.999999749556431E-1
95 75 9.999999992246783E-1
95 82 4.999999703831496E-1
95 91 4.99999931525046E-1
95 103 9.999999791776172E-1
95 104 9.999999874925254E-1
96 22 9.999999414443691E-1
96 28 9.999999722412078E-1
96 35 4.99999873013299E-1
96 50 4.9999993809153176E-1
96 52 9.999999281497278E-1
96 54 9.999999828792457E-1
96 59 9.999998975128956E-1
96 102 4.9999991063375615E-1
96 119 9.999999897226215E-1
96 127 4.9999993799033166E-1
97 9 4.999999924416867E-1
97 16 9.999999934461452E-1
97 63 4.9999999607405704E-1
97 74 9.99999996910069E-1
97 106 9.999999967737446E-1
97 128 9.999999934352619E-1
97 130 9.999999929933008E-1
98 13 9.999998885051283E-1
98 33 9.999998987281771E-1
98 46 9.999998820295192E-1
98 67 4.999998987960834E-1
98 99 4.999999164164484E-1
98 107 4.999999346611692E-1
99 1 4.999999846725104E-1
99 15 9.999999472917602E-1
99 46 4.9999991888832396E-1
99 67 9.999999723789534E-1
99 88 4.999999619727892E-1
99 94 4.999999493785789E-1
99 98 4.999999164164484E-1
99 107 9.99999961016193E-1
99 123 4.999999619818077E-1
100 6 9.999999769490998E-1
100 8 9.99999975375159E-1
100 12 9.999999906618255E-1
100 53 4.9999997161114923E-1
100 58 9.999999905303382E-1
100 85 4.999999766366999E-1
100 94 4.9999994782359214E-1
100 116 9.999999926998288E-1
101 28 4.9999994141472687E-1
101 34 4.999999754757659E-1
101 47 9.999999888814626E-1
101 48 4.9999998271593815E-1
101 52 4.999999700473148E-1
101 66 9.999999864402165E-1
101 90 4.9999997911972716E-1
101 108 9.99999986104299E-1
102 22 9.999998426635589E-1
102 50 9.999998636233719E-1
102 54 4.9999989683317636E-1
102 59 9.999999408633783E-1
102 96 4.9999991063375615E-1
102 127 9.999999071321606E-1
103 3 4.9999993235031104E-1
103 14 4.9999996680523073E-1
103 37 9.999999937313818E-1
103 69 9.999999457166555E-1
103 73 9.999999823454211E-1
103 75 9.999999848421901E-1
103 95 9.999999791776172E-1
103 104 9.999999606846527E-1
104 17 9.999999602437988E-1
104 37 4.999999729292945E-1
104 40 4.9999993616350946E-1
104 73 4.999999655197979E-1
104 75 9.999999894523082E-1
104 82 9.999999824630367E-1
104 95 9.999999874925254E-1
104 103 9.999999606846527E-1
104 117 4.9999997092886195E-1
104 118 9.999999740072248E-1
105 7 4.9999999637822157E-1
105 13 4.9999994579749385E-1
105 24 4.999999901554111E-1
105 27 4.999999964325113E-1
105 33 4.999999383323548E-1
105 36 9.999999982655088E-1
105 39 9.999999946953718E-1
105 43 9.999999944101197E-1
105 65 9.999999964304064E-1
105 112 9.999999958119251E-1
105 122 9.99999998217694E-1
106 10 4.999999969875152E-1
106 21 9.999999946014669E-1
106 45 9.999999966979759E-1
106 63 9.999999975870982E-1
106 74 9.999999964842733E-1
106 97 9.999999967737446E-1
106 129 4.999999948961812E-1
106 130 9.999999972534426E-1
107 1 4.9999996756478243E-1
107 13 9.999999275643219E-1
107 33 4.999999609641449E-1
107 46 4.999998693555224E-1
107 67 9.999999896002498E-1
107 98 4.999999346611692E-1
107 99 9.99999961016193E-1
107 112 4.999999666695635E-1
107 115 4.9999996555862647E-1
108 34 4.999999786803018E-1
108 47 4.9999997611891883E-1
108 48 9.999999940929382E-1
108 56 9.999999855773899E-1
108 66 9.99999998917571E-1
108 70 4.999999427236565E-1
108 80 4.9999999075997326E-1
108 90 9.999999851869534E-1
108 101 9.99999986104299E-1
109 3 9.99999987234976E-1
109 14 9.99999944576638E-1
109 78 9.999999577531572E-1
109 93 4.999999311425053E-1
109 114 9.999999964039645E-1
109 132 9.999999595706798E-1
110 8 9.999999693571121E-1
110 58 4.9999995732939573E-1
110 69 9.999999684896036E-1
110 73 4.999999618647154E-1
110 85 4.999999755271031E-1
110 116 4.999999694860144E-1
111 23 9.999999615577675E-1
111 40 4.9999992412067185E-1
111 41 4.999999617538858E-1
111 44 9.99999995883742E-1
111 49 9.999999689613377E-1
111 82 9.999999496905264E-1
111 117 9.999999734350922E-1
111 118 9.999999611212138E-1
112 13 4.999999486207969E-1
112 24 4.999999861216147E-1
112 33 4.999999415264513E-1
112 36 4.9999999623412916E-1
112 39 4.999999950107121E-1
112 65 4.9999999363177766E-1
112 68 4.9999999079955865E-1
112 83 9.99999991071239E-1
112 105 9.999999958119251E-1
112 107 4.999999666695635E-1
112 115 4.999999904936908E-1
112 122 9.999999944123253E-1
112 125 4.999999926284405E-1
113 2 9.999999990119384E-1
113 12 4.9999998717565125E-1
113 20 4.9999998741701873E-1
113 31 4.999999890993219E-1
113 32 4.9999999718714766E-1
113 55 9.999999966325626E-1
113 61 9.999999962926187E-1
113 84 9.999999994293137E-1
113 85 4.999999857824897E-1
113 93 4.9999998441131605E-1
113 124 4.999999963269218E-1
114 3 9.999999754148875E-1
114 14 9.999999189139395E-1
114 78 9.999999604371732E-1
114 93 4.9999993146369703E-1
114 109 9.999999964039645E-1
114 132 9.999999630929933E-1
115 25 4.999999864269606E-1
115 42 4.9999999046175103E-1
115 68 9.999999966874247E-1
115 83 9.999999910428609E-1
115 107 4.9999996555862647E-1
115 112 4.999999904936908E-1
115 125 9.999999941263285E-1
116 8 9.999999945624242E-1
116 12 9.999999827425771E-1
116 53 9.999999533219883E-1
116 58 9.999999903513241E-1
116 85 9.999999707624806E-1
116 89 4.999998654895119E-1
116 100 9.999999926998288E-1
116 110 4.999999694860144E-1
117 40 9.99999945621451E-1
117 44 9.999999484168215E-1
117 82 9.999999525877943E-1
117 91 4.9999993304035895E-1
117 104 4.9999997092886195E-1
117 111 9.999999734350922E-1
117 118 9.999999560131445E-1
118 17 9.999999924463651E-1
118 49 9.999999862441277E-1
118 82 9.99999999019911E-1
118 104 9.999999740072248E-1
118 111 9.999999611212138E-1
118 117 9.999999560131445E-1
119 22 9.999998861410976E-1
119 28 9.999999933747622E-1
119 35 4.999998619616632E-1
119 47 4.999999525927899E-1
119 50 4.999999389255988E-1
119 52 9.999999712565365E-1
119 54 9.999999562115501E-1
119 59 4.9999993712674484E-1
119 96 9.999999897226215E-1
119 127 4.9999993208769705E-1
120 5 9.999999970804134E-1
120 18 9.999999943468999E-1
120 25 4.9999999530746814E-1
120 92 9.99999997183893E-1
120 126 9.999999961325006E-1
120 131 9.99999992841837E-1
121 10 4.999999691645155E-1
121 26 9.999999961948928E-1
121 29 9.999999889266035E-1
121 45 4.9999996364426214E-1
121 60 4.999999753253338E-1
121 129 4.999999734292309E-1
122 7 4.9999999603139383E-1
122 27 4.9999999620968494E-1
122 36 9.999999997575657E-1
122 39 9.999999990172355E-1
122 43 4.999999956288562E-1
122 65 9.999999982711139E-1
122 68 4.9999998995325395E-1
122 83 9.999999925544164E-1
122 105 9.99999998217694E-1
122 112 9.999999944123253E-1
122 125 4.999999930017778E-1
123 1 9.999999885795945E-1
123 5 4.9999999467916384E-1
123 6 4.9999998874668783E-1
123 15 4.9999996834823623E-1
123 25 9.999999957220234E-1
123 42 9.999999965988379E-1
123 67 4.999999802389624E-1
123 88 9.99999999999998E-1
123 92 9.99999992641635E-1
123 99 4.999999619818077E-1
124 2 4.9999999694839264E-1
124 32 9.999999987891076E-1
124 38 9.999999950379156E-1
124 55 9.999999991645836E-1
124 57 9.999999982496319E-1
124 61 9.999999987735442E-1
124 81 9.999999998030386E-1
124 84 4.999999954001387E-1
124 113 4.999999963269218E-1
125 39 4.999999942208651E-1
125 68 9.999999993599262E-1
125 83 9.999999989526707E-1
125 112 4.999999926284405E-1
125 115 9.999999941263285E-1
125 122 4.999999930017778E-1
126 32 9.99999995593539E-1
126 38 4.9999999632470693E-1
126 81 4.999999961005855E-1
126 87 9.99999992335527E-1
126 120 9.999999961325006E-1
126 131 9.999999958751685E-1
127 28 4.999999013589305E-1
127 50 9.999999955573974E-1
127 59 9.999999953328513E-1
127 96 4.9999993799033166E-1
127 102 9.999999071321606E-1
127 119 4.9999993208769705E-1
128 9 4.9999999196942124E-1
128 16 9.999999995546165E-1
128 19 9.999999982384661E-1
128 21 4.999999944299883E-1
128 64 9.99999992940874E-1
128 76 4.9999998865829154E-1
128 77 9.999999954030878E-1
128 79 9.999999924474668E-1
128 97 9.999999934352619E-1
129 10 9.999999989375639E-1
129 21 4.9999999468654016E-1
129 26 4.9999997552894815E-1
129 29 4.999999916048084E-1
129 45 9.999999968709377E-1
129 60 9.999999992781708E-1
129 63 9.999999937383223E-1
129 106 4.999999948961812E-1
129 121 4.999999734292309E-1
129 130 4.9999999588372984E-1
130 10 9.999999965866194E-1
130 45 9.999999987678173E-1
130 60 4.999999931628028E-1
130 63 9.99999999849845E-1
130 74 9.999999982952887E-1
130 97 9.999999929933008E-1
130 106 9.999999972534426E-1
130 129 4.9999999588372984E-1
131 5 4.999999955025492E-1
131 38 9.999999980680814E-1
131 71 9.999999958682139E-1
131 81 4.999999961545469E-1
131 87 9.999999991372371E-1
131 120 9.99999992841837E-1
131 126 9.999999958751685E-1
132 3 4.9999995208253434E-1
132 20 4.9999997870596435E-1
132 31 4.999999789695892E-1
132 78 9.999999999069531E-1
132 93 9.999999679873182E-1
132 109 9.999999595706798E-1
132 114 9.999999630929933E-1
