%%MatrixMarket matrix coordinate real general
%
132 132 1524
1 6 9.999999738527838E-1
1 15 9.999999688367199E-1
1 25 4.999999853200753E-1
1 42 9.999999785902662E-1
1 46 4.9999983658508396E-1
1 67 9.999999751363734E-1
1 88 9.999999885745476E-1
1 92 4.9999998198827594E-1
1 94 4.999999523763483E-1
1 98 4.9999984026487493E-1
1 99 9.999999693450208E-1
1 107 4.9999996756478243E-1
1 123 9.999999885795945E-1
2 12 4.99999989361823E-1
2 20 4.999999821323071E-1
2 31 4.9999998399553186E-1
2 32 9.999999969063911E-1
2 55 9.999999967533914E-1
2 57 4.9999999300343745E-1
2 58 4.9999998625820774E-1
2 61 9.999999956227412E-1
2 81 9.999999931605612E-1
2 84 9.999999995446843E-1
2 85 4.9999998290622527E-1
2 113 9.999999990119384E-1
2 124 9.999999938967853E-1
2 126 9.999999920236047E-1
3 14 9.999999834207993E-1
3 37 4.9999991790831855E-1
3 73 4.999999024747089E-1
3 78 9.999999021122882E-1
3 103 4.9999993235031104E-1
3 109 9.99999987234976E-1
3 110 4.999999228616824E-1
3 114 9.999999754148875E-1
3 132 9.999999041650687E-1
4 9 9.99999985023455E-1
4 11 9.999999568172099E-1
4 16 4.999999770116089E-1
4 62 4.9999997050055506E-1
4 64 4.9999998826823444E-1
4 76 9.999999917717413E-1
4 77 4.999999788241447E-1
4 79 4.9999997614980307E-1
4 86 4.9999997918854605E-1
4 128 4.999999722840577E-1
5 18 9.999999994288492E-1
5 25 9.999999977362155E-1
5 42 9.999999908215806E-1
5 71 4.9999999429199E-1
5 88 9.999999893642273E-1
5 92 9.999999993246124E-1
5 120 9.999999970804134E-1
5 123 9.999999893583277E-1
5 126 4.999999943484275E-1
5 131 9.999999910050984E-1
6 1 9.999999738527838E-1
6 12 9.999999700715831E-1
6 15 9.999999719701339E-1
6 25 4.999999822623229E-1
6 53 4.999999431239808E-1
6 88 9.99999977502519E-1
6 92 4.999999863701898E-1
6 94 4.9999996128946683E-1
6 99 4.9999994969988504E-1
6 100 9.999999769490998E-1
6 116 4.99999971866356E-1
6 120 4.9999998473534785E-1
6 123 9.999999774933757E-1
7 24 9.999999729023981E-1
7 27 9.999999999900395E-1
7 36 9.999999945770742E-1
7 39 9.999999908032585E-1
7 43 9.999999990278412E-1
7 65 9.999999972883313E-1
7 105 9.999999927564431E-1
7 112 4.9999998891170033E-1
7 122 9.999999920627877E-1
8 12 4.9999998481945024E-1
8 53 9.999999396226683E-1
8 58 9.999999831272756E-1
8 69 4.9999995290440785E-1
8 84 4.999999659027917E-1
8 85 9.999999814618012E-1
8 89 4.999998550269605E-1
8 100 9.99999975375159E-1
8 110 9.999999693571121E-1
8 113 4.999999620817329E-1
8 116 9.999999945624242E-1
9 4 9.99999985023455E-1
9 11 4.999999455647761E-1
9 16 9.999999886886394E-1
9 62 4.9999993690668254E-1
9 64 9.999999956544925E-1
9 76 9.999999989661377E-1
9 77 9.999999837589224E-1
9 79 9.999999776174999E-1
9 86 4.999999879652315E-1
9 97 4.999999924416867E-1
9 128 4.9999999196942124E-1
10 21 9.99999989547272E-1
10 26 4.9999996987107226E-1
10 29 4.9999998837811144E-1
10 45 9.999999994017724E-1
10 60 9.999999964831671E-1
10 63 9.999999977743942E-1
10 74 9.999999901956699E-1
10 97 4.999999916028627E-1
10 106 9.999999939750304E-1
10 121 4.999999691645155E-1
10 129 9.999999989375639E-1
10 130 9.999999965866194E-1
11 4 9.999999568172099E-1
11 9 4.999999455647761E-1
11 47 4.9999993079115107E-1
11 50 4.999998855839071E-1
11 51 4.999999292190257E-1
11 52 9.999998583143808E-1
11 62 9.999999825000828E-1
11 64 4.9999993883363186E-1
11 76 4.9999995560307914E-1
11 86 4.9999993253384717E-1
12 2 4.99999989361823E-1
12 6 9.999999700715831E-1
12 8 4.9999998481945024E-1
12 53 4.9999994577000084E-1
12 58 9.999999978738399E-1
12 84 4.99999990583815E-1
12 85 9.999999738349878E-1
12 100 9.999999906618255E-1
12 110 4.9999994279791765E-1
12 113 4.9999998717565125E-1
12 116 9.999999827425771E-1
12 126 4.999999866764126E-1
13 24 4.9999997759031417E-1
13 33 9.999999995181058E-1
13 43 4.999999409323192E-1
13 46 4.999997997155933E-1
13 67 4.9999993439310314E-1
13 98 9.999998885051283E-1
13 105 4.9999994579749385E-1
13 107 9.999999275643219E-1
13 112 4.999999486207969E-1
13 122 4.9999993163941453E-1
14 3 9.999999834207993E-1
14 26 4.9999992777236574E-1
14 37 9.999999037791231E-1
14 73 9.99999873858944E-1
14 75 4.999999305246765E-1
14 103 9.999999336104615E-1
14 109 9.99999944576638E-1
14 110 4.999999239142123E-1
14 114 9.999999189139395E-1
15 1 9.999999688367199E-1
15 6 9.999999719701339E-1
15 42 4.9999995306144396E-1
15 46 4.999998575222017E-1
15 53 4.999999447969612E-1
15 88 4.9999996834893073E-1
15 89 4.9999986041348465E-1
15 92 4.9999995252259277E-1
15 94 9.999999821833593E-1
15 99 9.999999472917602E-1
15 100 4.9999996474028E-1
15 123 4.9999996834823623E-1
16 4 4.999999770116089E-1
16 9 9.999999886886394E-1
16 19 9.999999968267398E-1
16 62 4.999998961648318E-1
16 64 9.999999959306458E-1
16 76 4.9999999160275443E-1
16 77 9.99999996330854E-1
16 79 9.999999930736096E-1
16 86 9.999999878507043E-1
16 97 9.999999934461452E-1
16 106 4.999999937444698E-1
16 128 9.999999995546165E-1
17 23 4.999999777067843E-1
17 26 9.999999401936411E-1
17 29 4.999999724367118E-1
17 49 9.999999863232887E-1
17 60 4.9999997473718544E-1
17 75 4.9999995623568594E-1
17 82 9.999999922246031E-1
17 104 9.999999602437988E-1
17 111 4.999999657275251E-1
17 117 4.999999560222928E-1
17 118 9.999999924463651E-1
17 121 4.9999995442359174E-1
17 129 4.9999996842699035E-1
18 5 9.999999994288492E-1
18 25 9.999999980042912E-1
18 42 9.999999923290869E-1
18 71 9.999999914338261E-1
18 88 9.999999882047104E-1
18 92 9.999999978124557E-1
18 115 4.999999853975828E-1
18 120 9.999999943468999E-1
18 123 9.999999882002446E-1
18 131 4.999999954341252E-1
19 16 9.999999968267398E-1
19 21 9.999999888338872E-1
19 23 4.999999867575493E-1
19 51 4.9999998893190234E-1
19 64 9.999999889208225E-1
19 77 9.999999963368597E-1
19 79 9.999999953708201E-1
19 86 9.999999896569775E-1
19 97 9.999999855295345E-1
19 106 4.9999999190167166E-1
19 128 9.999999982384661E-1
20 2 4.999999821323071E-1
20 31 9.999999992456443E-1
20 55 4.9999998547880836E-1
20 61 4.999999874631753E-1
20 78 9.999999602503142E-1
20 84 4.9999998374322824E-1
20 93 9.999999990791715E-1
20 109 4.999999197584646E-1
20 113 4.9999998741701873E-1
20 114 4.9999992068787713E-1
20 124 4.9999998176994614E-1
20 132 4.9999997870596435E-1
21 10 9.99999989547272E-1
21 19 9.999999888338872E-1
21 23 4.999999885336289E-1
21 29 4.9999997461445583E-1
21 45 9.999999902668911E-1
21 49 4.9999997893736775E-1
21 60 9.99999988440345E-1
21 63 9.999999885179625E-1
21 74 4.999999911932609E-1
21 97 4.999999932302142E-1
21 106 9.999999946014669E-1
21 128 9.999999888599767E-1
21 129 9.999999893730803E-1
21 130 9.9999998651236E-1
22 28 9.999998566649638E-1
22 35 9.999998096120106E-1
22 52 4.9999988115871685E-1
22 54 9.999999800076437E-1
22 59 9.999998070914581E-1
22 96 9.999999414443691E-1
22 102 9.999998426635589E-1
22 119 9.999998861410976E-1
22 127 9.999997530831092E-1
23 17 4.999999777067843E-1
23 19 4.999999867575493E-1
23 21 4.999999885336289E-1
23 30 4.999999810105661E-1
23 44 9.999999754860258E-1
23 49 9.999999896142922E-1
23 72 4.999999794164974E-1
23 79 4.999999797239618E-1
23 82 4.99999969561712E-1
23 111 9.999999615577675E-1
23 118 4.99999976282671E-1
23 128 4.9999998041916305E-1
24 7 9.999999729023981E-1
24 13 4.9999997759031417E-1
24 27 9.999999721484818E-1
24 33 4.9999997285830944E-1
24 36 4.999999842121636E-1
24 39 4.9999997764500126E-1
24 43 9.999999821898706E-1
24 65 4.9999998325695877E-1
24 98 4.9999985953880477E-1
24 105 4.999999901554111E-1
24 112 4.999999861216147E-1
24 122 4.999999834027122E-1
25 1 4.999999853200753E-1
25 5 9.999999977362155E-1
25 6 4.999999822623229E-1
25 18 9.999999980042912E-1
25 42 9.999999976347869E-1
25 67 4.999999724779481E-1
25 71 4.999999909086759E-1
25 88 9.999999957240034E-1
25 92 9.999999978698717E-1
25 115 4.999999864269606E-1
25 120 9.999999906149363E-1
25 123 9.999999957220234E-1
25 131 4.999999903554953E-1
26 10 4.9999996987107226E-1
26 14 4.9999992777236574E-1
26 17 9.999999401936411E-1
26 29 9.999999913210721E-1
26 45 4.999999638120294E-1
26 60 4.9999997873601243E-1
26 63 4.999999582243121E-1
26 121 9.999999961948928E-1
26 129 4.9999997552894815E-1
26 130 4.999999557260732E-1
27 7 9.999999999900395E-1
27 24 9.999999721484818E-1
27 36 9.999999948783922E-1
27 39 9.99999991316114E-1
27 43 9.999999988725511E-1
27 65 9.99999997552966E-1
27 105 9.999999928650226E-1
27 112 4.999999890538461E-1
27 122 9.999999924193699E-1
28 22 9.999998566649638E-1
28 35 4.9999988078566293E-1
28 47 9.999999437912115E-1
28 50 9.999998241441703E-1
28 52 9.999999881332458E-1
28 54 9.999999426886218E-1
28 59 9.999998114564856E-1
28 96 9.999999722412078E-1
28 101 4.9999994141472687E-1
28 102 4.999998314472502E-1
28 119 9.999999933747622E-1
28 127 4.999999013589305E-1
29 10 4.9999998837811144E-1
29 17 4.999999724367118E-1
29 21 4.9999997461445583E-1
29 26 9.999999913210721E-1
29 45 4.999999845311925E-1
29 60 9.999999860983708E-1
29 63 4.9999998080552793E-1
29 121 9.999999889266035E-1
29 129 9.999999832096168E-1
29 130 4.9999997906816546E-1
30 23 4.999999810105661E-1
30 44 4.9999997430387794E-1
30 48 9.999999843902045E-1
30 51 9.999999953989007E-1
30 56 9.999999960997961E-1
30 66 4.9999998235699145E-1
30 72 9.999999975613261E-1
30 77 4.9999998874172025E-1
30 79 9.999999842786579E-1
30 80 9.999999972049395E-1
30 86 9.999999866947687E-1
30 90 9.99999972684646E-1
30 108 4.9999998402452117E-1
31 2 4.9999998399553186E-1
31 20 9.999999992456443E-1
31 55 4.99999985777947E-1
31 61 4.999999875450727E-1
31 78 4.999999805448481E-1
31 84 4.9999998596176415E-1
31 85 9.999999668199466E-1
31 93 9.999999991550258E-1
31 109 4.999999225732672E-1
31 113 4.999999890993219E-1
31 114 4.9999992188243025E-1
31 124 4.999999815612851E-1
31 132 4.999999789695892E-1
32 2 9.999999969063911E-1
32 38 9.999999947348238E-1
32 55 9.9999999849994E-1
32 57 9.999999955461827E-1
32 61 9.999999972898002E-1
32 81 9.999999990025339E-1
32 84 4.999999970758847E-1
32 87 4.9999999580998294E-1
32 113 9.999999943742953E-1
32 124 9.999999987891076E-1
32 126 9.99999995593539E-1
32 131 4.999999960939672E-1
33 13 9.999999995181058E-1
33 24 4.9999997285830944E-1
33 43 4.9999993327822695E-1
33 46 4.9999980550339296E-1
33 67 4.9999992976262425E-1
33 98 9.999998987281771E-1
33 105 4.999999383323548E-1
33 107 9.999999219282898E-1
33 112 4.999999415264513E-1
33 122 4.9999992329877896E-1
34 41 9.999999597432442E-1
34 47 4.9999995292913924E-1
34 48 9.999999656556138E-1
34 66 9.99999969859629E-1
34 70 9.999999823508572E-1
34 72 4.999999680433411E-1
34 80 4.999999704547976E-1
34 90 9.99999983262417E-1
34 101 9.999999509515318E-1
34 108 4.999999786803018E-1
35 22 9.999998096120106E-1
35 28 4.9999988078566293E-1
35 47 4.9999983044924645E-1
35 52 4.99999846891496E-1
35 54 9.999998413413632E-1
35 70 4.99999786622057E-1
35 96 4.99999873013299E-1
35 101 4.9999979408889367E-1
35 119 4.999998619616632E-1
36 7 9.999999945770742E-1
36 24 4.999999842121636E-1
36 27 9.999999948783922E-1
36 39 9.99999998836478E-1
36 43 9.999999936337531E-1
36 65 9.999999992866215E-1
36 68 4.999999878633639E-1
36 83 9.99999989948733E-1
36 105 9.999999982655088E-1
36 112 9.999999924682583E-1
36 122 9.999999997575657E-1
36 125 4.999999913030307E-1
37 3 4.9999991790831855E-1
37 14 9.999999037791231E-1
37 69 9.999999745385219E-1
37 73 9.999999970940325E-1
37 75 9.999999819817544E-1
37 82 4.99999934655431E-1
37 91 4.9999990411029793E-1
37 95 9.999999799103295E-1
37 103 9.999999937313818E-1
37 104 9.99999945858589E-1
37 110 9.999999125414432E-1
38 32 9.999999947348238E-1
38 55 9.999999905559952E-1
38 57 9.999999977014671E-1
38 61 4.999999944455561E-1
38 71 9.999999936018584E-1
38 81 9.999999967579716E-1
38 87 9.9999999939634E-1
38 120 4.9999999222730596E-1
38 124 9.999999950379156E-1
38 126 9.999999926494139E-1
38 131 9.999999980680814E-1
39 7 9.999999908032585E-1
39 24 4.9999997764500126E-1
39 27 9.99999991316114E-1
39 36 9.99999998836478E-1
39 43 4.99999994024743E-1
39 65 9.999999980649069E-1
39 68 4.999999912164708E-1
39 83 9.999999938406046E-1
39 105 9.999999946953718E-1
39 112 9.999999900214241E-1
39 115 4.999999853213784E-1
39 122 9.999999990172355E-1
39 125 9.999999884417302E-1
40 73 4.9999991421208245E-1
40 75 4.999999370797128E-1
40 82 4.9999991593136384E-1
40 89 4.9999986981693195E-1
40 91 9.999999802645386E-1
40 95 4.999999460414635E-1
40 104 4.9999993616350946E-1
40 111 4.9999992412067185E-1
40 117 9.99999945621451E-1
40 118 4.999999139547679E-1
41 34 9.999999597432442E-1
41 44 4.999999630892214E-1
41 48 4.999999500222439E-1
41 66 4.999999414821793E-1
41 70 9.999999830478239E-1
41 72 4.9999994859191427E-1
41 80 4.999999437685862E-1
41 90 4.9999996778988404E-1
41 111 9.999999235077716E-1
42 1 9.999999785902662E-1
42 5 9.999999908215806E-1
42 15 4.9999995306144396E-1
42 18 9.999999923290869E-1
42 25 9.999999976347869E-1
42 67 4.999999825476857E-1
42 88 9.999999965965956E-1
42 92 9.999999913301876E-1
42 99 4.999999557298785E-1
42 107 4.999999602813434E-1
42 115 9.999999809235021E-1
42 120 4.999999894614353E-1
42 123 9.999999965988379E-1
43 7 9.999999990278412E-1
43 13 4.999999409323192E-1
43 24 9.999999821898706E-1
43 27 9.999999988725511E-1
43 33 4.9999993327822695E-1
43 36 9.999999936337531E-1
43 39 4.99999994024743E-1
43 65 9.999999955164169E-1
43 105 9.999999944101197E-1
43 112 4.999999903259287E-1
43 122 9.999999912577124E-1
44 23 9.999999754860258E-1
44 30 4.9999997430387794E-1
44 41 4.999999630892214E-1
44 49 9.999999705548313E-1
44 72 4.99999980361669E-1
44 80 4.99999972301816E-1
44 82 4.999999665473598E-1
44 111 9.99999995883742E-1
44 117 9.999999484168215E-1
44 118 9.99999947758876E-1
45 10 9.999999994017724E-1
45 21 9.999999902668911E-1
45 26 4.999999638120294E-1
45 29 4.999999845311925E-1
45 60 9.999999932942587E-1
45 63 9.999999994605772E-1
45 74 9.999999943965507E-1
45 97 9.999999887051385E-1
45 106 9.999999966979759E-1
45 121 4.9999996364426214E-1
45 129 9.999999968709377E-1
45 130 9.999999987678173E-1
46 1 4.9999983658508396E-1
46 13 4.999997997155933E-1
46 15 4.999998575222017E-1
46 33 4.9999980550339296E-1
46 67 4.999998514229702E-1
46 94 4.9999986611018055E-1
46 98 9.999998820295192E-1
46 99 4.9999991888832396E-1
46 107 4.999998693555224E-1
47 11 4.9999993079115107E-1
47 28 9.999999437912115E-1
47 34 4.9999995292913924E-1
47 35 4.9999983044924645E-1
47 48 4.999999578451625E-1
47 52 9.999999802621262E-1
47 66 4.9999997549174224E-1
47 90 4.999999522352492E-1
47 96 4.999999187909055E-1
47 101 9.999999888814626E-1
47 108 4.9999997611891883E-1
47 119 9.999999051855798E-1
48 30 9.999999843902045E-1
48 34 9.999999656556138E-1
48 41 4.999999500222439E-1
48 47 4.999999578451625E-1
48 51 9.999999771478517E-1
48 56 9.999999928766352E-1
48 66 9.999999951389408E-1
48 70 4.9999995273763354E-1
48 72 9.999999893969613E-1
48 80 9.99999994626399E-1
48 90 9.999999958717006E-1
48 101 4.9999998271593815E-1
48 108 9.999999940929382E-1
49 17 9.999999863232887E-1
49 21 4.9999997893736775E-1
49 23 9.999999896142922E-1
49 44 9.999999705548313E-1
49 60 4.999999751467571E-1
49 82 9.999999789041606E-1
49 111 9.999999689613377E-1
49 117 4.999999630124086E-1
49 118 9.999999862441277E-1
49 129 4.9999997020897996E-1
50 11 4.999998855839071E-1
50 28 9.999998241441703E-1
50 52 4.999999002419404E-1
50 54 4.9999988907570797E-1
50 59 9.999999837797307E-1
50 96 9.999998761830635E-1
50 102 9.999998636233719E-1
50 119 9.999998778511976E-1
50 127 9.999999955573974E-1
51 11 4.999999292190257E-1
51 19 4.9999998893190234E-1
51 30 9.999999953989007E-1
51 48 9.999999771478517E-1
51 56 9.999999955411217E-1
51 72 9.999999870530601E-1
51 77 9.999999880367071E-1
51 79 9.99999992412919E-1
51 80 9.999999903377799E-1
51 86 9.999999961383806E-1
51 108 4.9999998428530346E-1
52 11 9.999998583143808E-1
52 22 4.9999988115871685E-1
52 28 9.999999881332458E-1
52 35 4.99999846891496E-1
52 47 9.999999802621262E-1
52 50 4.999999002419404E-1
52 54 9.999998788034897E-1
52 59 4.999998802071388E-1
52 66 4.9999993563047296E-1
52 96 9.999999281497278E-1
52 101 9.999999400946296E-1
52 102 4.999997794368125E-1
52 108 4.9999993818159444E-1
52 119 9.999999712565365E-1
52 127 4.99999882384315E-1
53 6 4.999999431239808E-1
53 8 9.999999396226683E-1
53 12 4.9999994577000084E-1
53 15 4.999999447969612E-1
53 58 4.9999995217530524E-1
53 69 4.99999939349138E-1
53 89 9.9999990803811E-1
53 94 9.999999190904783E-1
53 100 9.999999432222985E-1
53 116 9.999999533219883E-1
54 22 9.999999800076437E-1
54 28 9.999999426886218E-1
54 35 9.999998413413632E-1
54 50 4.9999988907570797E-1
54 52 9.999998788034897E-1
54 59 9.999998261986479E-1
54 96 9.999999828792457E-1
54 102 9.999997936663527E-1
54 119 9.999999562115501E-1
54 127 9.999997876279533E-1
55 2 9.999999967533914E-1
55 20 4.9999998547880836E-1
55 31 4.99999985777947E-1
55 32 9.9999999849994E-1
55 38 9.999999905559952E-1
55 57 9.999999950790083E-1
55 61 9.999999998127163E-1
55 81 9.999999983516553E-1
55 84 9.99999994889255E-1
55 93 4.999999809532972E-1
55 113 9.999999966325626E-1
55 124 9.999999991645836E-1
55 126 4.9999999455788474E-1
56 30 9.999999960997961E-1
56 48 9.999999928766352E-1
56 51 9.999999955411217E-1
56 66 9.999999818655282E-1
56 72 9.999999936232922E-1
56 80 9.999999978153185E-1
56 86 9.999999833806126E-1
56 90 9.999999798738841E-1
56 101 4.99999971854558E-1
56 108 9.999999855773899E-1
57 2 4.9999999300343745E-1
57 32 9.999999955461827E-1
57 38 9.999999977014671E-1
57 55 9.999999950790083E-1
57 61 9.999999946910761E-1
57 71 4.999999924110022E-1
57 81 9.999999987147228E-1
57 84 4.999999906038992E-1
57 87 9.999999948600781E-1
57 113 4.999999918669417E-1
57 124 9.999999982496319E-1
57 126 4.9999999362461384E-1
57 131 9.999999918353959E-1
58 2 4.9999998625820774E-1
58 8 9.999999831272756E-1
58 12 9.999999978738399E-1
58 53 4.9999995217530524E-1
58 84 4.9999998844886595E-1
58 85 9.999999840796835E-1
58 100 9.999999905303382E-1
58 110 4.9999995732939573E-1
58 113 4.9999998519334365E-1
58 116 9.999999903513241E-1
58 126 4.999999797933715E-1
59 22 9.999998070914581E-1
59 28 9.999998114564856E-1
59 50 9.999999837797307E-1
59 52 4.999998802071388E-1
59 54 9.999998261986479E-1
59 96 9.999998975128956E-1
59 102 9.999999408633783E-1
59 119 9.999998742534897E-1
59 127 9.999999953328513E-1
60 10 9.999999964831671E-1
60 17 4.9999997473718544E-1
60 21 9.99999988440345E-1
60 26 4.9999997873601243E-1
60 29 9.999999860983708E-1
60 45 9.999999932942587E-1
60 49 4.999999751467571E-1
60 63 9.999999889540252E-1
60 74 4.9999998778620147E-1
60 106 4.9999999263734946E-1
60 121 4.999999753253338E-1
60 129 9.999999992781708E-1
60 130 9.999999863256056E-1
61 2 9.999999956227412E-1
61 20 4.999999874631753E-1
61 31 4.999999875450727E-1
61 32 9.999999972898002E-1
61 38 4.999999944455561E-1
61 55 9.999999998127163E-1
61 57 9.999999946910761E-1
61 81 9.999999976439469E-1
61 84 9.999999939329826E-1
61 93 4.9999998311198873E-1
61 113 9.999999962926187E-1
61 124 9.999999987735442E-1
62 4 4.9999997050055506E-1
62 9 4.9999993690668254E-1
62 11 9.999999825000828E-1
62 16 4.999998961648318E-1
62 64 4.9999992165262347E-1
62 76 4.999999465072453E-1
62 77 4.999998996863699E-1
62 79 4.9999989486008095E-1
62 86 4.999999033570087E-1
63 10 9.999999977743942E-1
63 21 9.999999885179625E-1
63 26 4.999999582243121E-1
63 29 4.9999998080552793E-1
63 45 9.999999994605772E-1
63 60 9.999999889540252E-1
63 74 9.999999973123594E-1
63 97 9.999999921481141E-1
63 106 9.999999975870982E-1
63 121 4.999999589320224E-1
63 129 9.999999937383223E-1
63 130 9.99999999849845E-1
64 4 4.9999998826823444E-1
64 9 9.999999956544925E-1
64 11 4.9999993883363186E-1
64 16 9.999999959306458E-1
64 19 9.999999889208225E-1
64 62 4.9999992165262347E-1
64 76 9.999999941546344E-1
64 77 9.999999961220204E-1
64 79 9.999999929893852E-1
64 86 9.999999916646324E-1
64 97 4.9999999239220017E-1
64 128 9.99999992940874E-1
65 7 9.999999972883313E-1
65 24 4.9999998325695877E-1
65 27 9.99999997552966E-1
65 36 9.999999992866215E-1
65 39 9.999999980649069E-1
65 43 9.999999955164169E-1
65 83 9.999999855035696E-1
65 105 9.999999964304064E-1
65 112 9.999999872635553E-1
65 122 9.999999982711139E-1
65 125 4.9999998864647915E-1
66 30 4.9999998235699145E-1
66 34 9.99999969859629E-1
66 41 4.999999414821793E-1
66 47 4.9999997549174224E-1
66 48 9.999999951389408E-1
66 52 4.9999993563047296E-1
66 56 9.999999818655282E-1
66 70 4.9999995327518E-1
66 72 9.999999703645398E-1
66 80 9.999999804970344E-1
66 90 9.999999904502537E-1
66 101 9.999999864402165E-1
66 108 9.99999998917571E-1
67 1 9.999999751363734E-1
67 13 4.9999993439310314E-1
67 25 4.999999724779481E-1
67 33 4.9999992976262425E-1
67 42 4.999999825476857E-1
67 46 4.999998514229702E-1
67 88 4.999999802302235E-1
67 98 4.999998987960834E-1
67 99 9.999999723789534E-1
67 107 9.999999896002498E-1
67 112 4.9999996741083985E-1
67 115 4.999999788641825E-1
67 123 4.999999802389624E-1
68 36 4.999999878633639E-1
68 39 4.999999912164708E-1
68 71 4.9999998555555175E-1
68 83 9.999999969149395E-1
68 105 4.9999998524484757E-1
68 112 9.999999815991173E-1
68 115 9.999999966874247E-1
68 122 4.9999998995325395E-1
68 125 9.999999993599262E-1
69 8 4.9999995290440785E-1
69 37 9.999999745385219E-1
69 53 4.99999939349138E-1
69 73 9.999999859990815E-1
69 75 9.999999226557368E-1
69 89 4.9999987837307375E-1
69 91 4.9999990566943237E-1
69 95 9.999999247259997E-1
69 103 9.999999457166555E-1
69 110 9.999999684896036E-1
69 116 4.9999993407668164E-1
70 34 9.999999823508572E-1
70 35 4.99999786622057E-1
70 41 9.999999830478239E-1
70 48 4.9999995273763354E-1
70 66 4.9999995327518E-1
70 72 4.9999993806353293E-1
70 80 4.9999993780795216E-1
70 90 4.9999997002796204E-1
70 101 4.9999993961676675E-1
70 108 4.999999427236565E-1
71 5 4.9999999429199E-1
71 18 9.999999914338261E-1
71 25 4.999999909086759E-1
71 38 9.999999936018584E-1
71 57 4.999999924110022E-1
71 68 4.9999998555555175E-1
71 87 9.999999968103114E-1
71 92 4.9999999119940886E-1
71 120 9.999999838761872E-1
71 126 4.999999919162888E-1
71 131 9.999999958682139E-1
72 23 4.999999794164974E-1
72 30 9.999999975613261E-1
72 34 4.999999680433411E-1
72 41 4.9999994859191427E-1
72 44 4.99999980361669E-1
72 48 9.999999893969613E-1
72 51 9.999999870530601E-1
72 56 9.999999936232922E-1
72 66 9.999999703645398E-1
72 70 4.9999993806353293E-1
72 80 9.999999985579334E-1
72 86 4.9999998643521043E-1
72 90 9.999999839600163E-1
72 108 9.999999704620963E-1
72 111 4.999999657077819E-1
73 3 4.999999024747089E-1
73 14 9.99999873858944E-1
73 37 9.999999970940325E-1
73 40 4.9999991421208245E-1
73 69 9.999999859990815E-1
73 75 9.999999743974992E-1
73 82 4.999999221886904E-1
73 91 4.999999194009694E-1
73 95 9.999999749556431E-1
73 103 9.999999823454211E-1
73 104 9.999999310395958E-1
73 110 9.999999237294308E-1
74 10 9.999999901956699E-1
74 21 4.999999911932609E-1
74 45 9.999999943965507E-1
74 60 4.9999998778620147E-1
74 63 9.999999973123594E-1
74 97 9.99999996910069E-1
74 106 9.999999964842733E-1
74 128 4.999999910589742E-1
74 129 9.999999829029891E-1
74 130 9.999999982952887E-1
75 14 4.999999305246765E-1
75 17 4.9999995623568594E-1
75 37 9.999999819817544E-1
75 40 4.999999370797128E-1
75 69 9.999999226557368E-1
75 73 9.999999743974992E-1
75 82 9.99999944791181E-1
75 91 4.9999992083810046E-1
75 95 9.999999992246783E-1
75 103 9.999999848421901E-1
75 104 9.999999894523082E-1
75 118 9.999999303450582E-1
76 4 9.999999917717413E-1
76 9 9.999999989661377E-1
76 11 4.9999995560307914E-1
76 16 4.9999999160275443E-1
76 62 4.999999465072453E-1
76 64 9.999999941546344E-1
76 77 9.999999809720916E-1
76 79 4.999999876354722E-1
76 86 4.9999998785455285E-1
76 97 4.999999880188081E-1
76 128 4.9999998865829154E-1
77 4 4.999999788241447E-1
77 9 9.999999837589224E-1
77 16 9.99999996330854E-1
77 19 9.999999963368597E-1
77 30 4.9999998874172025E-1
77 51 9.999999880367071E-1
77 62 4.999998996863699E-1
77 64 9.999999961220204E-1
77 76 9.999999809720916E-1
77 79 9.999999993905985E-1
77 86 9.999999975002254E-1
77 128 9.999999954030878E-1
78 3 9.999999021122882E-1
78 20 9.999999602503142E-1
78 31 4.999999805448481E-1
78 85 4.999999575003749E-1
78 93 9.999999705872448E-1
78 109 9.999999577531572E-1
78 113 4.999999421425516E-1
78 114 9.999999604371732E-1
78 132 9.999999999069531E-1
79 4 4.9999997614980307E-1
79 9 9.999999776174999E-1
79 16 9.999999930736096E-1
79 19 9.999999953708201E-1
79 23 4.999999797239618E-1
79 30 9.999999842786579E-1
79 51 9.99999992412919E-1
79 62 4.9999989486008095E-1
79 64 9.999999929893852E-1
79 76 4.999999876354722E-1
79 77 9.999999993905985E-1
79 86 9.999999988666544E-1
79 128 9.999999924474668E-1
80 30 9.999999972049395E-1
80 34 4.999999704547976E-1
80 41 4.999999437685862E-1
80 44 4.99999972301816E-1
80 48 9.99999994626399E-1
80 51 9.999999903377799E-1
80 56 9.999999978153185E-1
80 66 9.999999804970344E-1
80 70 4.9999993780795216E-1
80 72 9.999999985579334E-1
80 86 4.9999998766907416E-1
80 90 9.999999870673624E-1
80 101 4.99999968077384E-1
80 108 9.999999815199465E-1
81 2 9.999999931605612E-1
81 32 9.999999990025339E-1
81 38 9.999999967579716E-1
81 55 9.999999983516553E-1
81 57 9.999999987147228E-1
81 61 9.999999976439469E-1
81 84 4.999999947965444E-1
81 87 9.999999935348084E-1
81 113 4.999999955261575E-1
81 124 9.999999998030386E-1
81 126 4.999999961005855E-1
81 131 9.999999923090938E-1
82 17 9.999999922246031E-1
82 23 4.99999969561712E-1
82 37 4.99999934655431E-1
82 40 4.9999991593136384E-1
82 44 4.999999665473598E-1
82 49 9.999999789041606E-1
82 73 4.999999221886904E-1
82 75 9.99999944791181E-1
82 95 9.999999407662992E-1
82 103 4.9999995029464034E-1
82 104 9.999999824630367E-1
82 111 9.999999496905264E-1
82 117 9.999999525877943E-1
82 118 9.99999999019911E-1
83 36 9.99999989948733E-1
83 39 9.999999938406046E-1
83 65 9.999999855035696E-1
83 68 9.999999969149395E-1
83 105 9.999999859756687E-1
83 112 9.99999991071239E-1
83 115 9.999999910428609E-1
83 122 9.999999925544164E-1
83 125 9.999999989526707E-1
84 2 9.999999995446843E-1
84 8 4.999999659027917E-1
84 12 4.99999990583815E-1
84 20 4.9999998374322824E-1
84 31 4.9999998596176415E-1
84 32 4.999999970758847E-1
84 55 9.99999994889255E-1
84 57 4.999999906038992E-1
84 58 4.9999998844886595E-1
84 61 9.999999939329826E-1
84 81 4.999999947965444E-1
84 85 4.9999998660809036E-1
84 93 4.9999998067036644E-1
84 100 4.999999726739472E-1
84 113 9.999999994293137E-1
84 116 4.9999996892569776E-1
84 124 4.999999954001387E-1
84 126 4.9999999419496394E-1
85 2 4.9999998290622527E-1
85 8 9.999999814618012E-1
85 12 9.999999738349878E-1
85 31 9.999999668199466E-1
85 58 9.999999840796835E-1
85 78 4.999999575003749E-1
85 84 4.9999998660809036E-1
85 93 9.999999597588048E-1
85 100 4.999999766366999E-1
85 110 4.999999755271031E-1
85 113 4.999999857824897E-1
85 116 9.999999707624806E-1
85 132 4.9999995464239194E-1
86 4 4.9999997918854605E-1
86 9 4.999999879652315E-1
86 11 4.9999993253384717E-1
86 16 9.999999878507043E-1
86 19 9.999999896569775E-1
86 30 9.999999866947687E-1
86 51 9.999999961383806E-1
86 56 9.999999833806126E-1
86 62 4.999999033570087E-1
86 64 9.999999916646324E-1
86 72 4.9999998643521043E-1
86 76 4.9999998785455285E-1
86 77 9.999999975002254E-1
86 79 9.999999988666544E-1
86 80 4.9999998766907416E-1
86 128 9.999999862010595E-1
87 32 4.9999999580998294E-1
87 38 9.9999999939634E-1
87 57 9.999999948600781E-1
87 71 9.999999968103114E-1
87 81 9.999999935348084E-1
87 120 9.999999870123968E-1
87 124 9.999999911260274E-1
87 126 9.99999992335527E-1
87 131 9.999999991372371E-1
88 1 9.999999885745476E-1
88 5 9.999999893642273E-1
88 6 9.99999977502519E-1
88 15 4.9999996834893073E-1
88 18 9.999999882047104E-1
88 25 9.999999957240034E-1
88 42 9.999999965965956E-1
88 67 4.999999802302235E-1
88 92 9.999999926476163E-1
88 94 4.999999263519539E-1
88 99 4.999999619727892E-1
88 120 4.9999999075398727E-1
88 123 9.99999999999998E-1
89 8 4.999998550269605E-1
89 15 4.9999986041348465E-1
89 40 4.9999986981693195E-1
89 53 9.9999990803811E-1
89 69 4.9999987837307375E-1
89 91 9.999998630850528E-1
89 94 4.9999991504507807E-1
89 100 4.999998559052916E-1
89 116 4.999998654895119E-1
90 30 9.99999972684646E-1
90 34 9.99999983262417E-1
90 41 4.9999996778988404E-1
90 47 4.999999522352492E-1
90 48 9.999999958717006E-1
90 56 9.999999798738841E-1
90 66 9.999999904502537E-1
90 70 4.9999997002796204E-1
90 72 9.999999839600163E-1
90 80 9.999999870673624E-1
90 101 9.999999582394543E-1
90 108 9.999999851869534E-1
91 37 4.9999990411029793E-1
91 40 9.999999802645386E-1
91 69 4.9999990566943237E-1
91 73 4.999999194009694E-1
91 75 4.9999992083810046E-1
91 89 9.999998630850528E-1
91 95 4.99999931525046E-1
91 104 4.999999059359618E-1
91 117 4.9999993304035895E-1
92 1 4.9999998198827594E-1
92 5 9.999999993246124E-1
92 6 4.999999863701898E-1
92 15 4.9999995252259277E-1
92 18 9.999999978124557E-1
92 25 9.999999978698717E-1
92 42 9.999999913301876E-1
92 71 4.9999999119940886E-1
92 88 9.999999926476163E-1
92 120 9.99999997183893E-1
92 123 9.99999992641635E-1
92 126 4.9999999355140246E-1
92 131 4.999999933844274E-1
93 20 9.999999990791715E-1
93 31 9.999999991550258E-1
93 55 4.999999809532972E-1
93 61 4.9999998311198873E-1
93 78 9.999999705872448E-1
93 84 4.9999998067036644E-1
93 85 9.999999597588048E-1
93 109 4.999999311425053E-1
93 113 4.9999998441131605E-1
93 114 4.9999993146369703E-1
93 132 9.999999679873182E-1
94 1 4.999999523763483E-1
94 6 4.9999996128946683E-1
94 15 9.999999821833593E-1
94 46 4.9999986611018055E-1
94 53 9.999999190904783E-1
94 88 4.999999263519539E-1
94 89 4.9999991504507807E-1
94 99 9.999998987571578E-1
94 100 4.9999994782359214E-1
94 116 4.9999992902167195E-1
94 123 4.9999992634989104E-1
95 37 9.999999799103295E-1
95 40 4.999999460414635E-1
95 69 9.999999247259997E-1
95 73 9.999999749556431E-1
95 75 9.999999992246783E-1
95 82 9.999999407662992E-1
95 91 4.99999931525046E-1
95 103 9.999999791776172E-1
95 104 9.999999874925254E-1
95 117 9.999999140480733E-1
95 118 4.999999633020031E-1
96 22 9.999999414443691E-1
96 28 9.999999722412078E-1
96 35 4.99999873013299E-1
96 47 4.999999187909055E-1
96 50 9.999998761830635E-1
96 52 9.999999281497278E-1
96 54 9.999999828792457E-1
96 59 9.999998975128956E-1
96 102 4.9999991063375615E-1
96 119 9.999999897226215E-1
96 127 9.999998759806633E-1
97 9 4.999999924416867E-1
97 10 4.999999916028627E-1
97 16 9.999999934461452E-1
97 19 9.999999855295345E-1
97 21 4.999999932302142E-1
97 45 9.999999887051385E-1
97 63 9.999999921481141E-1
97 64 4.9999999239220017E-1
97 74 9.99999996910069E-1
97 76 4.999999880188081E-1
97 106 9.999999967737446E-1
97 128 9.999999934352619E-1
97 130 9.999999929933008E-1
98 1 4.9999984026487493E-1
98 13 9.999998885051283E-1
98 24 4.9999985953880477E-1
98 33 9.999998987281771E-1
98 46 9.999998820295192E-1
98 67 4.999998987960834E-1
98 99 4.999999164164484E-1
98 107 4.999999346611692E-1
98 112 4.99999833345428E-1
99 1 9.999999693450208E-1
99 6 4.9999994969988504E-1
99 15 9.999999472917602E-1
99 42 4.999999557298785E-1
99 46 4.9999991888832396E-1
99 67 9.999999723789534E-1
99 88 4.999999619727892E-1
99 94 9.999998987571578E-1
99 98 4.999999164164484E-1
99 107 9.99999961016193E-1
99 123 4.999999619818077E-1
100 6 9.999999769490998E-1
100 8 9.99999975375159E-1
100 12 9.999999906618255E-1
100 15 4.9999996474028E-1
100 53 9.999999432222985E-1
100 58 9.999999905303382E-1
100 84 4.999999726739472E-1
100 85 4.999999766366999E-1
100 89 4.999998559052916E-1
100 94 4.9999994782359214E-1
100 110 4.999999449812981E-1
100 116 9.999999926998288E-1
100 120 4.9999997136040364E-1
101 28 4.9999994141472687E-1
101 34 9.999999509515318E-1
101 35 4.9999979408889367E-1
101 47 9.999999888814626E-1
101 48 4.9999998271593815E-1
101 52 9.999999400946296E-1
101 56 4.99999971854558E-1
101 66 9.999999864402165E-1
101 70 4.9999993961676675E-1
101 80 4.99999968077384E-1
101 90 9.999999582394543E-1
101 108 9.99999986104299E-1
102 22 9.999998426635589E-1
102 28 4.999998314472502E-1
102 50 9.999998636233719E-1
102 52 4.999997794368125E-1
102 54 9.999997936663527E-1
102 59 9.999999408633783E-1
102 96 4.9999991063375615E-1
102 119 4.9999987445366045E-1
102 127 9.999999071321606E-1
103 3 4.9999993235031104E-1
103 14 9.999999336104615E-1
103 37 9.999999937313818E-1
103 69 9.999999457166555E-1
103 73 9.999999823454211E-1
103 75 9.999999848421901E-1
103 82 4.9999995029464034E-1
103 95 9.999999791776172E-1
103 104 9.999999606846527E-1
103 110 4.9999994044954593E-1
104 17 9.999999602437988E-1
104 37 9.99999945858589E-1
104 40 4.9999993616350946E-1
104 73 9.999999310395958E-1
104 75 9.999999894523082E-1
104 82 9.999999824630367E-1
104 91 4.999999059359618E-1
104 95 9.999999874925254E-1
104 103 9.999999606846527E-1
104 117 9.999999418577239E-1
104 118 9.999999740072248E-1
105 7 9.999999927564431E-1
105 13 4.9999994579749385E-1
105 24 4.999999901554111E-1
105 27 9.999999928650226E-1
105 33 4.999999383323548E-1
105 36 9.999999982655088E-1
105 39 9.999999946953718E-1
105 43 9.999999944101197E-1
105 65 9.999999964304064E-1
105 68 4.9999998524484757E-1
105 83 9.999999859756687E-1
105 112 9.999999958119251E-1
105 122 9.99999998217694E-1
105 125 4.9999998865107464E-1
106 10 9.999999939750304E-1
106 16 4.999999937444698E-1
106 19 4.9999999190167166E-1
106 21 9.999999946014669E-1
106 45 9.999999966979759E-1
106 60 4.9999999263734946E-1
106 63 9.999999975870982E-1
106 74 9.999999964842733E-1
106 97 9.999999967737446E-1
106 128 9.999999898392902E-1
106 129 9.999999897923624E-1
106 130 9.999999972534426E-1
107 1 4.9999996756478243E-1
107 13 9.999999275643219E-1
107 33 9.999999219282898E-1
107 42 4.999999602813434E-1
107 46 4.999998693555224E-1
107 67 9.999999896002498E-1
107 98 4.999999346611692E-1
107 99 9.99999961016193E-1
107 112 4.999999666695635E-1
107 115 4.9999996555862647E-1
107 123 4.999999550355364E-1
108 30 4.9999998402452117E-1
108 34 4.999999786803018E-1
108 47 4.9999997611891883E-1
108 48 9.999999940929382E-1
108 51 4.9999998428530346E-1
108 52 4.9999993818159444E-1
108 56 9.999999855773899E-1
108 66 9.99999998917571E-1
108 70 4.999999427236565E-1
108 72 9.999999704620963E-1
108 80 9.999999815199465E-1
108 90 9.999999851869534E-1
108 101 9.99999986104299E-1
109 3 9.99999987234976E-1
109 14 9.99999944576638E-1
109 20 4.999999197584646E-1
109 31 4.999999225732672E-1
109 78 9.999999577531572E-1
109 93 4.999999311425053E-1
109 110 4.9999992846881486E-1
109 114 9.999999964039645E-1
109 132 9.999999595706798E-1
110 3 4.999999228616824E-1
110 8 9.999999693571121E-1
110 12 4.9999994279791765E-1
110 14 4.999999239142123E-1
110 37 9.999999125414432E-1
110 58 4.9999995732939573E-1
110 69 9.999999684896036E-1
110 73 9.999999237294308E-1
110 85 4.999999755271031E-1
110 100 4.999999449812981E-1
110 103 4.9999994044954593E-1
110 109 4.9999992846881486E-1
110 114 4.9999990839749636E-1
110 116 9.999999389720288E-1
111 17 4.999999657275251E-1
111 23 9.999999615577675E-1
111 40 4.9999992412067185E-1
111 41 9.999999235077716E-1
111 44 9.99999995883742E-1
111 49 9.999999689613377E-1
111 72 4.999999657077819E-1
111 82 9.999999496905264E-1
111 117 9.999999734350922E-1
111 118 9.999999611212138E-1
112 7 4.9999998891170033E-1
112 13 4.999999486207969E-1
112 24 4.999999861216147E-1
112 27 4.999999890538461E-1
112 33 4.999999415264513E-1
112 36 9.999999924682583E-1
112 39 9.999999900214241E-1
112 43 4.999999903259287E-1
112 65 9.999999872635553E-1
112 67 4.9999996741083985E-1
112 68 9.999999815991173E-1
112 83 9.99999991071239E-1
112 98 4.99999833345428E-1
112 105 9.999999958119251E-1
112 107 4.999999666695635E-1
112 115 9.999999809873816E-1
112 122 9.999999944123253E-1
112 125 9.99999985256881E-1
113 2 9.999999990119384E-1
113 8 4.999999620817329E-1
113 12 4.9999998717565125E-1
113 20 4.9999998741701873E-1
113 31 4.999999890993219E-1
113 32 9.999999943742953E-1
113 55 9.999999966325626E-1
113 57 4.999999918669417E-1
113 58 4.9999998519334365E-1
113 61 9.999999962926187E-1
113 78 4.999999421425516E-1
113 81 4.999999955261575E-1
113 84 9.999999994293137E-1
113 85 4.999999857824897E-1
113 93 4.9999998441131605E-1
113 124 9.999999926538437E-1
113 126 4.9999999281807833E-1
113 132 4.999999392075867E-1
114 3 9.999999754148875E-1
114 14 9.999999189139395E-1
114 20 4.9999992068787713E-1
114 31 4.9999992188243025E-1
114 78 9.999999604371732E-1
114 93 4.9999993146369703E-1
114 109 9.999999964039645E-1
114 110 4.9999990839749636E-1
114 132 9.999999630929933E-1
115 18 4.999999853975828E-1
115 25 4.999999864269606E-1
115 39 4.999999853213784E-1
115 42 9.999999809235021E-1
115 67 4.999999788641825E-1
115 68 9.999999966874247E-1
115 83 9.999999910428609E-1
115 107 4.9999996555862647E-1
115 112 9.999999809873816E-1
115 122 4.9999998534592016E-1
115 125 9.999999941263285E-1
116 6 4.99999971866356E-1
116 8 9.999999945624242E-1
116 12 9.999999827425771E-1
116 53 9.999999533219883E-1
116 58 9.999999903513241E-1
116 69 4.9999993407668164E-1
116 84 4.9999996892569776E-1
116 85 9.999999707624806E-1
116 89 4.999998654895119E-1
116 94 4.9999992902167195E-1
116 100 9.999999926998288E-1
116 110 9.999999389720288E-1
117 17 4.999999560222928E-1
117 40 9.99999945621451E-1
117 44 9.999999484168215E-1
117 49 4.999999630124086E-1
117 82 9.999999525877943E-1
117 91 4.9999993304035895E-1
117 95 9.999999140480733E-1
117 104 9.999999418577239E-1
117 111 9.999999734350922E-1
117 118 9.999999560131445E-1
118 17 9.999999924463651E-1
118 23 4.99999976282671E-1
118 40 4.999999139547679E-1
118 44 9.99999947758876E-1
118 49 9.999999862441277E-1
118 75 9.999999303450582E-1
118 82 9.99999999019911E-1
118 95 4.999999633020031E-1
118 104 9.999999740072248E-1
118 111 9.999999611212138E-1
118 117 9.999999560131445E-1
119 22 9.999998861410976E-1
119 28 9.999999933747622E-1
119 35 4.999998619616632E-1
119 47 9.999999051855798E-1
119 50 9.999998778511976E-1
119 52 9.999999712565365E-1
119 54 9.999999562115501E-1
119 59 9.999998742534897E-1
119 96 9.999999897226215E-1
119 102 4.9999987445366045E-1
119 127 9.999998641753941E-1
120 5 9.999999970804134E-1
120 6 4.9999998473534785E-1
120 18 9.999999943468999E-1
120 25 9.999999906149363E-1
120 38 4.9999999222730596E-1
120 42 4.999999894614353E-1
120 71 9.999999838761872E-1
120 87 9.999999870123968E-1
120 88 4.9999999075398727E-1
120 92 9.99999997183893E-1
120 100 4.9999997136040364E-1
120 123 4.999999907487228E-1
120 126 9.999999961325006E-1
120 131 9.99999992841837E-1
121 10 4.999999691645155E-1
121 17 4.9999995442359174E-1
121 26 9.999999961948928E-1
121 29 9.999999889266035E-1
121 45 4.9999996364426214E-1
121 60 4.999999753253338E-1
121 63 4.999999589320224E-1
121 129 4.999999734292309E-1
121 130 4.999999570548596E-1
122 7 9.999999920627877E-1
122 13 4.9999993163941453E-1
122 24 4.999999834027122E-1
122 27 9.999999924193699E-1
122 33 4.9999992329877896E-1
122 36 9.999999997575657E-1
122 39 9.999999990172355E-1
122 43 9.999999912577124E-1
122 65 9.999999982711139E-1
122 68 4.9999998995325395E-1
122 83 9.999999925544164E-1
122 105 9.99999998217694E-1
122 112 9.999999944123253E-1
122 115 4.9999998534592016E-1
122 125 4.999999930017778E-1
123 1 9.999999885795945E-1
123 5 9.999999893583277E-1
123 6 9.999999774933757E-1
123 15 4.9999996834823623E-1
123 18 9.999999882002446E-1
123 25 9.999999957220234E-1
123 42 9.999999965988379E-1
123 67 4.999999802389624E-1
123 88 9.99999999999998E-1
123 92 9.99999992641635E-1
123 94 4.9999992634989104E-1
123 99 4.999999619818077E-1
123 107 4.999999550355364E-1
123 120 4.999999907487228E-1
124 2 9.999999938967853E-1
124 20 4.9999998176994614E-1
124 31 4.999999815612851E-1
124 32 9.999999987891076E-1
124 38 9.999999950379156E-1
124 55 9.999999991645836E-1
124 57 9.999999982496319E-1
124 61 9.999999987735442E-1
124 81 9.999999998030386E-1
124 84 4.999999954001387E-1
124 87 9.999999911260274E-1
124 113 9.999999926538437E-1
124 126 4.9999999521942223E-1
125 36 4.999999913030307E-1
125 39 9.999999884417302E-1
125 65 4.9999998864647915E-1
125 68 9.999999993599262E-1
125 83 9.999999989526707E-1
125 105 4.9999998865107464E-1
125 112 9.99999985256881E-1
125 115 9.999999941263285E-1
125 122 4.999999930017778E-1
126 2 9.999999920236047E-1
126 5 4.999999943484275E-1
126 12 4.999999866764126E-1
126 32 9.99999995593539E-1
126 38 9.999999926494139E-1
126 55 4.9999999455788474E-1
126 57 4.9999999362461384E-1
126 58 4.999999797933715E-1
126 71 4.999999919162888E-1
126 81 4.999999961005855E-1
126 84 4.9999999419496394E-1
126 87 9.99999992335527E-1
126 92 4.9999999355140246E-1
126 113 4.9999999281807833E-1
126 120 9.999999961325006E-1
126 124 4.9999999521942223E-1
126 131 9.999999958751685E-1
127 22 9.999997530831092E-1
127 28 4.999999013589305E-1
127 50 9.999999955573974E-1
127 52 4.99999882384315E-1
127 54 9.999997876279533E-1
127 59 9.999999953328513E-1
127 96 9.999998759806633E-1
127 102 9.999999071321606E-1
127 119 9.999998641753941E-1
128 4 4.999999722840577E-1
128 9 4.9999999196942124E-1
128 16 9.999999995546165E-1
128 19 9.999999982384661E-1
128 21 9.999999888599767E-1
128 23 4.9999998041916305E-1
128 64 9.99999992940874E-1
128 74 4.999999910589742E-1
128 76 4.9999998865829154E-1
128 77 9.999999954030878E-1
128 79 9.999999924474668E-1
128 86 9.999999862010595E-1
128 97 9.999999934352619E-1
128 106 9.999999898392902E-1
129 10 9.999999989375639E-1
129 17 4.9999996842699035E-1
129 21 9.999999893730803E-1
129 26 4.9999997552894815E-1
129 29 9.999999832096168E-1
129 45 9.999999968709377E-1
129 49 4.9999997020897996E-1
129 60 9.999999992781708E-1
129 63 9.999999937383223E-1
129 74 9.999999829029891E-1
129 106 9.999999897923624E-1
129 121 4.999999734292309E-1
129 130 9.999999917674597E-1
130 10 9.999999965866194E-1
130 21 9.9999998651236E-1
130 26 4.999999557260732E-1
130 29 4.9999997906816546E-1
130 45 9.999999987678173E-1
130 60 9.999999863256056E-1
130 63 9.99999999849845E-1
130 74 9.999999982952887E-1
130 97 9.999999929933008E-1
130 106 9.999999972534426E-1
130 121 4.999999570548596E-1
130 129 9.999999917674597E-1
131 5 9.999999910050984E-1
131 18 4.999999954341252E-1
131 25 4.999999903554953E-1
131 32 4.999999960939672E-1
131 38 9.999999980680814E-1
131 57 9.999999918353959E-1
131 71 9.999999958682139E-1
131 81 9.999999923090938E-1
131 87 9.999999991372371E-1
131 92 4.999999933844274E-1
131 120 9.99999992841837E-1
131 126 9.999999958751685E-1
132 3 9.999999041650687E-1
132 20 4.9999997870596435E-1
132 31 4.999999789695892E-1
132 78 9.999999999069531E-1
132 85 4.9999995464239194E-1
132 93 9.999999679873182E-1
132 109 9.999999595706798E-1
132 113 4.999999392075867E-1
132 114 9.999999630929933E-1
