%%MatrixMarket matrix coordinate real general
%
136 136 1562
1 5 4.999999774461544E-1
1 13 9.999999679739834E-1
1 24 4.999999849136704E-1
1 43 4.9999998899877535E-1
1 46 4.999998320610413E-1
1 69 9.99999974448039E-1
1 92 9.999999882582409E-1
1 96 4.999999814896322E-1
1 98 4.9999995105791634E-1
1 101 4.999998358427051E-1
1 102 9.999999684963562E-1
1 110 4.99999966666833E-1
1 126 9.999999882634275E-1
2 10 4.9999998906731147E-1
2 19 4.999999816376508E-1
2 30 4.9999998355245784E-1
2 31 9.999999968207465E-1
2 56 9.999999966635109E-1
2 58 4.9999999280974183E-1
2 59 4.999999858777745E-1
2 62 9.999999955015595E-1
2 85 9.999999929712156E-1
2 88 9.999999995320792E-1
2 89 4.999999824329945E-1
2 103 4.999999698325443E-1
2 115 9.999999989845845E-1
2 119 4.999999642299844E-1
2 127 9.999999937278216E-1
2 129 9.99999991802783E-1
3 12 9.999999829618141E-1
3 38 4.9999991563566004E-1
3 73 9.999999681529271E-1
3 82 9.99999899402326E-1
3 106 4.999999304774703E-1
3 112 9.99999986881584E-1
3 113 4.9999992072615473E-1
3 116 9.999999747342635E-1
3 136 9.999999015119365E-1
4 7 9.999999846088384E-1
4 9 9.999999556217204E-1
4 14 4.9999997637518917E-1
4 63 4.999999696838808E-1
4 66 4.999999879434476E-1
4 80 9.999999915439468E-1
4 81 4.9999997823790393E-1
4 83 4.999999754895248E-1
4 90 4.9999997861239354E-1
4 132 4.999999715167585E-1
5 1 4.999999774461544E-1
5 16 9.999999994130373E-1
5 24 9.999999976735441E-1
5 43 9.999999905674817E-1
5 70 9.999999980650682E-1
5 75 4.999999941339672E-1
5 92 9.999999890697824E-1
5 96 9.999999993059147E-1
5 123 9.999999969995864E-1
5 126 9.999999890637195E-1
5 135 9.999999907560799E-1
6 23 9.999999721522173E-1
6 26 9.999999999897637E-1
6 37 9.999999944269438E-1
6 40 9.999999905486523E-1
6 44 9.999999990009276E-1
6 67 9.999999972132605E-1
6 108 9.999999925559097E-1
6 114 4.999999886047275E-1
6 125 9.999999918430508E-1
7 4 9.999999846088384E-1
7 9 4.999999440577699E-1
7 14 9.999999883754912E-1
7 63 4.999999351599822E-1
7 66 9.999999955341897E-1
7 80 9.999999989375158E-1
7 81 9.99999983309298E-1
7 83 9.999999769978539E-1
7 90 4.9999998763205616E-1
7 100 9.999999844648787E-1
7 132 4.999999917470995E-1
8 17 4.9999998115428257E-1
8 20 9.999999892578946E-1
8 25 4.999999690369711E-1
8 28 4.999999880563665E-1
8 36 4.9999997655374323E-1
8 61 9.999999963858056E-1
8 64 9.99999978440086E-1
8 65 9.999999977127797E-1
8 78 9.999999899242429E-1
8 100 4.99999991370393E-1
8 109 9.999999938082327E-1
8 124 4.9999996831085375E-1
8 133 9.999999989081509E-1
8 134 9.99999996492122E-1
9 4 9.999999556217204E-1
9 7 4.999999440577699E-1
9 47 4.99999928875146E-1
9 51 4.99999882416367E-1
9 52 4.9999992725949727E-1
9 53 9.999998543919001E-1
9 63 9.999999820156081E-1
9 66 4.9999993714027796E-1
9 80 4.999999543739772E-1
9 90 4.9999993066608756E-1
10 2 4.9999998906731147E-1
10 54 4.999999442686761E-1
10 59 9.999999978149784E-1
10 88 4.9999999032313364E-1
10 89 9.999999731106253E-1
10 98 4.9999991544548494E-1
10 103 9.999999904033038E-1
10 113 4.9999994121431257E-1
10 115 4.9999998682061686E-1
10 119 9.999999822648157E-1
10 123 4.999999843838169E-1
10 129 4.999999863075571E-1
11 23 4.9999997696991555E-1
11 32 9.999999995047649E-1
11 44 4.9999993929706615E-1
11 46 4.999997941708414E-1
11 69 4.999999325768159E-1
11 101 9.999998854184602E-1
11 108 4.9999994429693023E-1
11 110 9.999999255589839E-1
11 114 4.9999994719839475E-1
11 125 4.999999297468931E-1
12 3 9.999999829618141E-1
12 25 4.999999257727874E-1
12 38 9.999999011153062E-1
12 73 9.999999063370553E-1
12 77 9.999998703668052E-1
12 79 4.9999992860129416E-1
12 106 9.999999317725071E-1
12 112 9.999999430422757E-1
12 116 9.999999166691209E-1
13 1 9.999999679739834E-1
13 24 4.999999497829111E-1
13 43 4.999999517619784E-1
13 46 4.9999985357779037E-1
13 54 4.9999994326869845E-1
13 92 4.9999996747269E-1
13 93 4.999998565491167E-1
13 96 4.9999995120820945E-1
13 98 9.999999816901164E-1
13 102 9.999999458325645E-1
13 103 4.99999963764136E-1
13 126 4.999999674719763E-1
14 4 4.9999997637518917E-1
14 7 9.999999883754912E-1
14 18 9.9999999673889E-1
14 63 4.999998932902181E-1
14 66 9.999999958179883E-1
14 78 4.9999999047751786E-1
14 80 4.999999913702817E-1
14 81 9.999999962292758E-1
14 83 9.999999928818567E-1
14 90 9.999999875143585E-1
14 100 9.999999932647057E-1
14 109 9.999999871425784E-1
14 132 9.999999995422864E-1
15 22 4.999999770896101E-1
15 25 4.999999692689691E-1
15 28 4.999999716736388E-1
15 36 9.999999727041878E-1
15 49 9.999999859446572E-1
15 61 4.999999740377997E-1
15 64 9.999999677826833E-1
15 79 4.9999995502409733E-1
15 86 9.99999992009346E-1
15 107 9.999999591431724E-1
15 120 4.999999548047966E-1
15 121 9.999999922372473E-1
16 5 9.999999994130373E-1
16 24 9.999999979490412E-1
16 43 9.999999921167223E-1
16 70 9.99999995364932E-1
16 75 9.999999911966767E-1
16 92 9.999999878781649E-1
16 96 9.99999997751895E-1
16 118 4.999999849933237E-1
16 123 9.999999941903973E-1
16 126 4.9999999393678773E-1
16 135 4.9999999530772177E-1
17 8 4.9999998115428257E-1
17 25 9.999999969336882E-1
17 28 9.99999998428389E-1
17 36 9.999999934356466E-1
17 61 9.999999750938194E-1
17 64 9.99999992442242E-1
17 65 4.9999997172180777E-1
17 124 9.999999945089965E-1
17 133 4.999999854082059E-1
18 14 9.9999999673889E-1
18 20 9.999999885247601E-1
18 22 4.9999998639094007E-1
18 52 4.999999886254888E-1
18 66 9.999999886141021E-1
18 81 9.999999962354479E-1
18 83 9.99999995242664E-1
18 90 9.999999893706372E-1
18 100 9.999999851289284E-1
18 109 4.9999999167747433E-1
18 132 9.999999981896991E-1
19 2 4.999999816376508E-1
19 30 9.999999992247605E-1
19 56 4.9999998507679794E-1
19 62 4.999999871161009E-1
19 73 4.999999298099231E-1
19 82 9.999999591498682E-1
19 88 4.9999998329316936E-1
19 89 4.9999997751264635E-1
19 97 9.99999999053679E-1
19 115 4.999999870686665E-1
19 116 4.99999918492169E-1
19 127 4.9999998126525813E-1
19 136 4.9999997811645186E-1
20 8 9.999999892578946E-1
20 18 9.999999885247601E-1
20 22 4.9999998821618935E-1
20 49 4.999999783542615E-1
20 61 9.999999881203229E-1
20 65 9.999999882000892E-1
20 78 4.9999999094945163E-1
20 100 9.999999860855936E-1
20 109 9.999999944520117E-1
20 132 9.999999885515719E-1
20 133 9.999999890788804E-1
20 134 9.999999861389628E-1
21 27 9.9999985269682E-1
21 34 9.999998043412345E-1
21 53 4.99999877868668E-1
21 55 9.999999794541673E-1
21 60 9.99999801750902E-1
21 105 9.999998383077948E-1
21 122 9.999998829889827E-1
21 130 9.999997643620027E-1
21 131 9.999997462473649E-1
22 15 4.999999770896101E-1
22 18 4.9999998639094007E-1
22 20 4.9999998821618935E-1
22 29 4.9999998048485506E-1
22 45 9.999999748073712E-1
22 49 9.999999893267701E-1
22 76 4.9999997884665554E-1
22 81 4.999999771855505E-1
22 83 4.9999997916263195E-1
22 86 4.999999687190464E-1
22 121 4.9999997562607107E-1
22 132 4.999999798770794E-1
23 6 9.999999721522173E-1
23 11 4.9999997696991555E-1
23 26 9.999999713774294E-1
23 32 4.999999721069081E-1
23 37 4.9999998377508686E-1
23 40 4.999999770261166E-1
23 44 9.999999816968079E-1
23 67 4.9999998279343777E-1
23 101 4.999998556502218E-1
23 108 4.999999898828696E-1
23 114 4.999999857374E-1
23 125 4.999999829432263E-1
24 1 4.999999849136704E-1
24 5 9.999999976735441E-1
24 13 4.999999497829111E-1
24 16 9.999999979490412E-1
24 43 9.999999975693074E-1
24 69 4.999999717160167E-1
24 70 9.999999936712258E-1
24 75 4.9999999065698814E-1
24 92 9.999999956056251E-1
24 96 9.999999978109003E-1
24 102 4.9999994232200007E-1
24 118 4.9999998605119916E-1
24 123 9.999999903551164E-1
24 126 9.999999956035901E-1
25 8 4.999999690369711E-1
25 12 4.999999257727874E-1
25 15 4.999999692689691E-1
25 17 9.999999969336882E-1
25 28 9.999999910808012E-1
25 36 9.999999926766765E-1
25 61 4.9999997814733177E-1
25 64 9.99999983925704E-1
25 124 9.999999960895507E-1
25 133 4.9999997485148184E-1
26 6 9.999999999897637E-1
26 23 9.999999713774294E-1
26 37 9.999999947366035E-1
26 40 9.999999910757058E-1
26 44 9.999999988413384E-1
26 67 9.999999974852213E-1
26 108 9.999999926674951E-1
26 114 4.999999887508084E-1
26 125 9.999999922095046E-1
27 21 9.9999985269682E-1
27 34 4.999998774852863E-1
27 35 9.999998387990688E-1
27 47 9.999999422351051E-1
27 51 9.999998192757081E-1
27 53 9.999999878047218E-1
27 55 9.999999411019909E-1
27 60 4.999999031183863E-1
27 104 4.9999993979282903E-1
27 105 4.9999982678096977E-1
27 122 9.999999931913465E-1
27 130 9.999998067151754E-1
27 131 4.999998986281123E-1
28 8 4.999999880563665E-1
28 15 4.999999716736388E-1
28 17 9.99999998428389E-1
28 25 9.999999910808012E-1
28 36 9.999999916291189E-1
28 61 9.999999857135126E-1
28 64 9.99999995934861E-1
28 65 4.9999998027414055E-1
28 124 9.999999886200432E-1
28 133 9.999999827447852E-1
29 22 4.9999998048485506E-1
29 45 4.999999735924963E-1
29 48 9.999999839580568E-1
29 50 4.9999998226011927E-1
29 52 9.999999952715221E-1
29 57 9.999999959918213E-1
29 76 9.999999974938129E-1
29 81 4.9999998843004156E-1
29 83 9.99999983843422E-1
29 84 9.999999971275599E-1
29 90 9.999999863264214E-1
29 94 4.9999998596421846E-1
30 2 4.9999998355245784E-1
30 19 9.999999992247605E-1
30 56 4.999999853842181E-1
30 62 4.999999872002655E-1
30 73 4.9999993084775357E-1
30 82 4.99999980006244E-1
30 88 4.999999855731241E-1
30 89 9.99999965901377E-1
30 97 9.999999991316333E-1
30 112 4.9999992042975494E-1
30 115 4.999999887975432E-1
30 116 4.9999991971979263E-1
30 127 4.9999998105082044E-1
30 136 4.99999978387375E-1
31 2 9.999999968207465E-1
31 39 9.999999945890606E-1
31 56 9.999999984584118E-1
31 58 9.999999954228814E-1
31 59 4.9999997629548926E-1
31 62 9.9999999721477E-1
31 85 9.999999989749196E-1
31 88 4.999999969949323E-1
31 91 4.9999999569398484E-1
31 115 9.999999942185511E-1
31 127 9.999999987555849E-1
31 129 9.999999954715488E-1
31 135 4.9999999598583106E-1
32 11 9.999999995047649E-1
32 23 4.999999721069081E-1
32 44 4.999999314310751E-1
32 46 4.999998001188728E-1
32 69 4.99999927818145E-1
32 101 9.999998959245279E-1
32 108 4.999999366251234E-1
32 110 9.999999197669216E-1
32 114 4.999999399076464E-1
32 125 4.999999211753521E-1
33 35 4.9999994408070997E-1
33 42 9.999999586287602E-1
33 47 4.999999516260109E-1
33 48 4.999999823524051E-1
33 50 9.999999712486297E-1
33 68 9.99999969025211E-1
33 74 9.999999818622513E-1
33 94 9.999999827990471E-1
33 104 9.999999495936546E-1
33 111 4.9999997809007884E-1
33 117 9.999999949686035E-1
34 21 9.999998043412345E-1
34 27 4.999998774852863E-1
34 35 9.999998874473134E-1
34 47 4.999998257553369E-1
34 53 4.999998426527801E-1
34 55 9.999998369489949E-1
34 74 4.9999978071481865E-1
34 104 4.9999978838837006E-1
34 122 4.999998581401556E-1
35 27 9.999998387990688E-1
35 33 4.9999994408070997E-1
35 34 9.999998874473134E-1
35 47 4.999999406430529E-1
35 53 9.999998429996706E-1
35 68 4.999999089887429E-1
35 74 9.999998876547036E-1
35 104 4.999999344298753E-1
35 117 4.9999993414430005E-1
36 8 4.9999997655374323E-1
36 15 9.999999727041878E-1
36 17 9.999999934356466E-1
36 25 9.999999926766765E-1
36 28 9.999999916291189E-1
36 49 4.999999696237836E-1
36 61 4.9999998668726153E-1
36 64 9.999999950494929E-1
36 86 4.999999694021789E-1
36 121 4.9999996805996016E-1
36 124 9.999999801286967E-1
36 133 4.999999827455038E-1
37 6 9.999999944269438E-1
37 23 4.9999998377508686E-1
37 26 9.999999947366035E-1
37 40 9.999999988042666E-1
37 44 9.999999934575075E-1
37 67 9.999999992668721E-1
37 71 4.9999998752736846E-1
37 87 9.999999896704698E-1
37 108 9.999999982174904E-1
37 114 9.999999922597466E-1
37 125 9.99999999750854E-1
37 128 4.9999999106226034E-1
38 3 4.9999991563566004E-1
38 12 9.999999011153062E-1
38 41 4.999999024994734E-1
38 72 9.999999738336361E-1
38 77 9.999999970135826E-1
38 79 9.999999814829301E-1
38 86 4.9999993284640615E-1
38 95 4.999999014556496E-1
38 99 9.999999793541591E-1
38 106 9.999999935578389E-1
38 107 9.999999443597167E-1
38 113 9.999999101202058E-1
39 31 9.999999945890606E-1
39 56 9.999999902945436E-1
39 58 9.999999976378335E-1
39 62 4.9999999429178466E-1
39 75 9.999999934247298E-1
39 85 9.999999966682179E-1
39 91 9.99999999379628E-1
39 123 4.9999999201212364E-1
39 127 9.999999949005434E-1
39 129 9.999999924459173E-1
39 135 9.999999980145974E-1
40 6 9.999999905486523E-1
40 23 4.999999770261166E-1
40 26 9.999999910757058E-1
40 37 9.999999988042666E-1
40 44 4.999999938593216E-1
40 67 9.99999998011335E-1
40 71 4.999999909733041E-1
40 87 9.999999936700855E-1
40 108 9.999999945485164E-1
40 114 9.999999897451732E-1
40 118 4.9999998491500963E-1
40 125 9.999999989900282E-1
40 128 9.999999881217465E-1
41 38 4.999999024994734E-1
41 77 4.999999118370959E-1
41 79 4.999999353378027E-1
41 86 4.999999136039745E-1
41 93 4.999998662128927E-1
41 95 9.999999797181743E-1
41 99 4.9999994454765406E-1
41 107 4.999999343962348E-1
41 120 9.999999441160137E-1
41 121 4.999999115726578E-1
42 33 9.999999586287602E-1
42 45 4.999999620673688E-1
42 48 4.9999994863863995E-1
42 50 9.99999965115073E-1
42 74 9.999999825785132E-1
42 76 4.999999471687125E-1
42 84 4.999999422118535E-1
42 94 4.999999668981664E-1
42 117 4.999999669128771E-1
43 1 4.9999998899877535E-1
43 5 9.999999905674817E-1
43 13 4.999999517619784E-1
43 16 9.999999921167223E-1
43 24 9.999999975693074E-1
43 69 4.9999998206452895E-1
43 70 4.999999918966298E-1
43 92 9.999999965023744E-1
43 96 9.999999910901691E-1
43 102 4.999999545042869E-1
43 110 4.9999995918175644E-1
43 118 9.999999803953807E-1
43 123 4.999999891696815E-1
43 126 9.999999965046787E-1
44 6 9.999999990009276E-1
44 11 4.9999993929706615E-1
44 23 9.999999816968079E-1
44 26 9.999999988413384E-1
44 32 4.999999314310751E-1
44 37 9.999999934575075E-1
44 40 4.999999938593216E-1
44 67 9.999999953922917E-1
44 108 9.999999942553672E-1
44 114 4.9999999005810786E-1
44 125 9.999999910156875E-1
45 22 9.999999748073712E-1
45 29 4.999999735924963E-1
45 42 4.999999620673688E-1
45 49 9.999999697396595E-1
45 50 9.9999996954605E-1
45 76 4.9999997981799366E-1
45 84 4.9999997153500847E-1
45 86 4.9999996562124366E-1
45 120 9.999999469887724E-1
45 121 9.99999946312612E-1
46 1 4.999998320610413E-1
46 11 4.999997941708414E-1
46 13 4.9999985357779037E-1
46 32 4.999998001188728E-1
46 69 4.9999984730970537E-1
46 98 4.999998624035221E-1
46 101 9.999998787635777E-1
46 102 4.999999166427963E-1
46 110 4.999998657387093E-1
47 9 4.99999928875146E-1
47 27 9.999999422351051E-1
47 33 4.999999516260109E-1
47 34 4.999998257553369E-1
47 35 4.999999406430529E-1
47 48 4.999999566781313E-1
47 53 9.999999797156951E-1
47 68 4.9999997481324593E-1
47 104 9.999999885736525E-1
47 111 4.999999754577855E-1
47 117 4.9999996502810545E-1
47 122 9.999999025606999E-1
48 29 9.999999839580568E-1
48 33 4.999999823524051E-1
48 42 4.9999994863863995E-1
48 47 4.999999566781313E-1
48 50 4.9999998817288993E-1
48 52 9.999999765152038E-1
48 57 9.999999926794292E-1
48 68 9.999999950043652E-1
48 74 4.999999514292035E-1
48 76 9.999999891034226E-1
48 84 9.999999944776341E-1
48 94 9.999999957574112E-1
48 104 4.9999998223743936E-1
48 111 9.999999939294048E-1
48 117 9.999999841487618E-1
49 15 9.999999859446572E-1
49 20 4.999999783542615E-1
49 22 9.999999893267701E-1
49 36 4.999999696237836E-1
49 45 9.999999697396595E-1
49 61 4.999999744587101E-1
49 64 4.9999997441484617E-1
49 86 9.99999978320135E-1
49 120 4.999999619884295E-1
49 121 9.999999858633046E-1
50 29 4.9999998226011927E-1
50 33 9.999999712486297E-1
50 42 9.99999965115073E-1
50 45 9.9999996954605E-1
50 48 4.9999998817288993E-1
50 74 4.999999729495061E-1
50 76 9.999999808679797E-1
50 84 9.999999759715892E-1
50 94 9.99999988639849E-1
50 117 9.999999728588118E-1
51 9 4.99999882416367E-1
51 27 9.999998192757081E-1
51 53 4.9999989748019896E-1
51 55 4.9999988600483625E-1
51 60 9.999999833306823E-1
51 105 9.999998598478675E-1
51 122 9.999998744695818E-1
51 130 9.999999939255771E-1
51 131 9.999999954344067E-1
52 9 4.9999992725949727E-1
52 18 4.999999886254888E-1
52 29 9.999999952715221E-1
52 48 9.999999765152038E-1
52 57 9.999999954176804E-1
52 76 9.999999866946319E-1
52 81 9.999999877055106E-1
52 83 9.999999922028753E-1
52 84 9.999999900702872E-1
52 90 9.99999996031474E-1
52 111 4.999999838502516E-1
53 9 9.999998543919001E-1
53 21 4.99999877868668E-1
53 27 9.999999878047218E-1
53 34 4.999998426527801E-1
53 35 9.999998429996706E-1
53 47 9.999999797156951E-1
53 51 4.9999989748019896E-1
53 55 9.999998754482377E-1
53 60 4.999998768907461E-1
53 68 4.999999338484415E-1
53 104 9.999999384361856E-1
53 105 4.9999977333065504E-1
53 111 4.9999993647018925E-1
53 122 9.99999970460791E-1
53 130 4.9999988259724754E-1
53 131 4.9999987912819605E-1
54 10 4.999999442686761E-1
54 13 4.9999994326869845E-1
54 59 4.9999995085130744E-1
54 72 9.999998753401111E-1
54 93 9.999999054922006E-1
54 98 9.99999916850547E-1
54 103 9.99999941650442E-1
54 113 9.99999880659434E-1
54 119 9.999999520297358E-1
55 21 9.999999794541673E-1
55 27 9.999999411019909E-1
55 34 9.999998369489949E-1
55 51 4.9999988600483625E-1
55 53 9.999998754482377E-1
55 60 9.999998213870627E-1
55 105 9.999997879541307E-1
55 122 9.999999549992934E-1
55 130 9.999997972460418E-1
55 131 9.999997817485619E-1
56 2 9.999999966635109E-1
56 19 4.9999998507679794E-1
56 30 4.999999853842181E-1
56 31 9.999999984584118E-1
56 39 9.999999902945436E-1
56 58 9.999999949427736E-1
56 62 9.999999998075314E-1
56 85 9.999999983060219E-1
56 88 9.999999947477671E-1
56 97 4.9999998042600075E-1
56 115 9.999999965393371E-1
56 127 9.999999991414555E-1
57 29 9.999999959918213E-1
57 48 9.999999926794292E-1
57 52 9.999999954176804E-1
57 68 9.999999813634863E-1
57 76 9.999999934467568E-1
57 84 9.999999977548368E-1
57 90 9.999999829205148E-1
57 94 9.999999793167048E-1
57 104 4.999999710753685E-1
57 111 9.999999851781086E-1
58 2 4.9999999280974183E-1
58 31 9.999999954228814E-1
58 39 9.999999976378335E-1
58 56 9.999999949427736E-1
58 62 9.999999945441018E-1
58 75 4.9999999220090535E-1
58 85 9.999999986791407E-1
58 88 4.9999999034377385E-1
58 91 9.999999947177823E-1
58 115 4.9999999164178294E-1
58 127 9.99999998201174E-1
58 129 4.999999934481151E-1
58 135 9.999999916093637E-1
59 2 4.999999858777745E-1
59 10 9.999999978149784E-1
59 31 4.9999997629548926E-1
59 54 4.9999995085130744E-1
59 88 4.999999881290798E-1
59 89 9.999999836389392E-1
59 103 9.999999902681763E-1
59 113 4.9999995614808584E-1
59 115 4.999999847834303E-1
59 119 9.999999900842064E-1
59 129 4.999999792339632E-1
60 21 9.99999801750902E-1
60 27 4.999999031183863E-1
60 51 9.999999833306823E-1
60 53 4.999998768907461E-1
60 55 9.999998213870627E-1
60 105 9.999999392262167E-1
60 122 9.999998707722736E-1
60 130 9.999999972087765E-1
60 131 9.999999952036441E-1
61 8 9.999999963858056E-1
61 15 4.999999740377997E-1
61 17 9.999999750938194E-1
61 20 9.999999881203229E-1
61 25 4.9999997814733177E-1
61 28 9.999999857135126E-1
61 36 4.9999998668726153E-1
61 49 4.999999744587101E-1
61 64 9.99999991370979E-1
61 65 9.99999988648224E-1
61 109 4.9999999243351895E-1
61 124 4.9999997464223056E-1
61 133 9.999999992581875E-1
61 134 9.999999859470382E-1
62 2 9.999999955015595E-1
62 19 4.999999871161009E-1
62 30 4.999999872002655E-1
62 31 9.9999999721477E-1
62 39 4.9999999429178466E-1
62 56 9.999999998075314E-1
62 58 9.999999945441018E-1
62 85 9.999999975787209E-1
62 88 9.999999937650208E-1
62 97 4.9999998264445433E-1
62 115 9.999999961899821E-1
62 127 9.999999987395904E-1
63 4 4.999999696838808E-1
63 7 4.999999351599822E-1
63 9 9.999999820156081E-1
63 14 4.999998932902181E-1
63 66 4.9999991948362377E-1
63 80 4.9999994502633066E-1
63 81 4.9999989690924784E-1
63 83 4.99999891949346E-1
63 90 4.9999990068150607E-1
64 8 9.99999978440086E-1
64 15 9.999999677826833E-1
64 17 9.99999992442242E-1
64 25 9.99999983925704E-1
64 28 9.99999995934861E-1
64 36 9.999999950494929E-1
64 49 4.9999997441484617E-1
64 61 9.99999991370979E-1
64 121 4.99999964731944E-1
64 124 9.999999740671907E-1
64 133 9.999999866466355E-1
65 8 9.999999977127797E-1
65 17 4.9999997172180777E-1
65 20 9.999999882000892E-1
65 28 4.9999998027414055E-1
65 61 9.99999988648224E-1
65 78 9.999999972379537E-1
65 100 9.999999919307394E-1
65 109 9.999999975202986E-1
65 124 4.999999577950803E-1
65 132 4.9999998858520356E-1
65 133 9.999999935649715E-1
65 134 9.99999999845688E-1
66 4 4.999999879434476E-1
66 7 9.999999955341897E-1
66 9 4.9999993714027796E-1
66 14 9.999999958179883E-1
66 18 9.999999886141021E-1
66 63 4.9999991948362377E-1
66 80 9.99999993992809E-1
66 81 9.999999960146609E-1
66 83 9.999999927953005E-1
66 90 9.999999914338727E-1
66 100 4.999999921815828E-1
66 132 9.999999927454464E-1
67 6 9.999999972132605E-1
67 23 4.9999998279343777E-1
67 26 9.999999974852213E-1
67 37 9.999999992668721E-1
67 40 9.99999998011335E-1
67 44 9.999999953922917E-1
67 87 9.999999851022446E-1
67 108 9.999999963315843E-1
67 114 9.999999869109546E-1
67 125 9.999999982232507E-1
67 128 4.9999998833216375E-1
68 33 9.99999969025211E-1
68 35 4.999999089887429E-1
68 47 4.9999997481324593E-1
68 48 9.999999950043652E-1
68 53 4.999999338484415E-1
68 57 9.999999813634863E-1
68 74 4.9999995198163155E-1
68 76 4.9999998477205E-1
68 84 9.999999799571065E-1
68 94 9.999999901858747E-1
68 104 9.999999860648221E-1
68 111 9.999999988876046E-1
68 117 9.999999889557887E-1
69 1 9.99999974448039E-1
69 11 4.999999325768159E-1
69 24 4.999999717160167E-1
69 32 4.99999927818145E-1
69 43 4.9999998206452895E-1
69 46 4.9999984730970537E-1
69 92 4.999999796829092E-1
69 101 4.9999989599431427E-1
69 102 9.999999716142814E-1
69 110 9.99999989312339E-1
69 114 4.9999996650862866E-1
69 118 4.999999782790502E-1
69 126 4.9999997969189003E-1
70 5 9.999999980650682E-1
70 16 9.99999995364932E-1
70 24 9.999999936712258E-1
70 43 4.999999918966298E-1
70 92 9.999999870310959E-1
70 96 9.999999989142507E-1
70 103 4.999999706189272E-1
70 123 9.999999994088711E-1
70 126 9.99999987022003E-1
70 129 9.999999923752991E-1
70 135 4.999999945584544E-1
71 37 4.9999998752736846E-1
71 40 4.999999909733041E-1
71 75 4.999999851556659E-1
71 87 9.999999968295313E-1
71 108 4.9999998483636005E-1
71 114 9.999999810897E-1
71 118 9.99999996595718E-1
71 125 4.999999896751159E-1
71 128 9.999999993422061E-1
72 38 9.999999738336361E-1
72 54 9.999998753401111E-1
72 77 9.999999856114745E-1
72 79 9.999999205145076E-1
72 93 4.9999987500590604E-1
72 95 4.999999030579478E-1
72 99 9.999999226420845E-1
72 106 9.99999944213854E-1
72 107 4.999999254927345E-1
72 113 9.999999676172573E-1
72 119 4.9999993225163447E-1
73 3 9.999999681529271E-1
73 12 9.999999063370553E-1
73 19 4.999999298099231E-1
73 30 4.9999993084775357E-1
73 82 9.999999702172095E-1
73 97 4.999999400219567E-1
73 112 9.999999952560473E-1
73 116 9.999999991467838E-1
73 136 9.999999725762015E-1
74 33 9.999999818622513E-1
74 34 4.9999978071481865E-1
74 35 9.999998876547036E-1
74 42 9.999999825785132E-1
74 48 4.999999514292035E-1
74 50 4.999999729495061E-1
74 68 4.9999995198163155E-1
74 94 4.999999691982043E-1
74 111 4.9999994113799556E-1
74 117 9.999999578650998E-1
75 5 4.999999941339672E-1
75 16 9.999999911966767E-1
75 24 4.9999999065698814E-1
75 39 9.999999934247298E-1
75 58 4.9999999220090535E-1
75 71 4.999999851556659E-1
75 91 9.999999967220068E-1
75 96 4.999999909557698E-1
75 123 4.9999999171490456E-1
75 129 4.999999916924961E-1
75 135 9.999999957538279E-1
76 22 4.9999997884665554E-1
76 29 9.999999974938129E-1
76 42 4.999999471687125E-1
76 45 4.9999997981799366E-1
76 48 9.999999891034226E-1
76 50 9.999999808679797E-1
76 52 9.999999866946319E-1
76 57 9.999999934467568E-1
76 68 4.9999998477205E-1
76 84 9.999999985180107E-1
76 90 4.9999998605967744E-1
76 94 9.99999983515959E-1
76 111 9.999999696443573E-1
77 12 9.999998703668052E-1
77 38 9.999999970135826E-1
77 41 4.999999118370959E-1
77 72 9.999999856114745E-1
77 79 9.999999736887094E-1
77 86 4.9999992003453136E-1
77 93 4.999998446706332E-1
77 95 4.99999917169634E-1
77 99 9.999999742623052E-1
77 106 9.999999818566647E-1
77 107 9.999999291304688E-1
77 113 9.999999216179262E-1
78 8 9.999999899242429E-1
78 14 4.9999999047751786E-1
78 20 4.9999999094945163E-1
78 65 9.999999972379537E-1
78 100 9.999999968245261E-1
78 109 9.999999963869425E-1
78 132 4.999999908114473E-1
78 133 9.999999824296687E-1
78 134 9.999999982480948E-1
79 12 4.9999992860129416E-1
79 15 4.9999995502409733E-1
79 38 9.999999814829301E-1
79 41 4.999999353378027E-1
79 72 9.999999205145076E-1
79 77 9.999999736887094E-1
79 86 9.999999432627582E-1
79 95 4.999999186465512E-1
79 99 9.99999999203214E-1
79 106 9.999999844225552E-1
79 107 9.999999891603017E-1
79 120 4.9999995175674716E-1
79 121 4.9999996420835163E-1
80 4 9.999999915439468E-1
80 7 9.999999989375158E-1
80 9 4.999999543739772E-1
80 14 4.999999913702817E-1
80 63 4.9999994502633066E-1
80 66 9.99999993992809E-1
80 81 9.999999804453155E-1
80 83 4.9999998729316775E-1
80 90 4.999999875183135E-1
80 100 4.99999987687116E-1
80 132 4.999999883443032E-1
81 4 4.9999997823790393E-1
81 7 9.99999983309298E-1
81 14 9.999999962292758E-1
81 18 9.999999962354479E-1
81 22 4.999999771855505E-1
81 29 4.9999998843004156E-1
81 52 9.999999877055106E-1
81 63 4.9999989690924784E-1
81 66 9.999999960146609E-1
81 80 9.999999804453155E-1
81 83 9.999999993737275E-1
81 90 9.999999974310206E-1
81 132 9.999999952758251E-1
82 3 9.99999899402326E-1
82 19 9.999999591498682E-1
82 30 4.99999980006244E-1
82 73 9.999999702172095E-1
82 89 4.9999995632379846E-1
82 97 9.999999697729703E-1
82 112 9.999999565835789E-1
82 116 9.999999593419002E-1
82 136 9.999999999043772E-1
83 4 4.999999754895248E-1
83 7 9.999999769978539E-1
83 14 9.999999928818567E-1
83 18 9.99999995242664E-1
83 22 4.9999997916263195E-1
83 29 9.99999983843422E-1
83 52 9.999999922028753E-1
83 63 4.99999891949346E-1
83 66 9.999999927953005E-1
83 80 4.9999998729316775E-1
83 81 9.999999993737275E-1
83 90 9.999999988352783E-1
83 132 9.999999922383794E-1
84 29 9.999999971275599E-1
84 42 4.999999422118535E-1
84 45 4.9999997153500847E-1
84 48 9.999999944776341E-1
84 50 9.999999759715892E-1
84 52 9.999999900702872E-1
84 57 9.999999977548368E-1
84 68 9.999999799571065E-1
84 76 9.999999985180107E-1
84 94 9.999999867093301E-1
84 111 9.999999810083373E-1
84 117 4.999999813473074E-1
85 2 9.999999929712156E-1
85 31 9.999999989749196E-1
85 39 9.999999966682179E-1
85 56 9.999999983060219E-1
85 58 9.999999986791407E-1
85 62 9.999999975787209E-1
85 88 4.9999999465248984E-1
85 91 9.999999933558235E-1
85 115 4.9999999540230183E-1
85 127 9.999999997975858E-1
85 129 4.9999999599263256E-1
85 135 9.999999920961757E-1
86 15 9.99999992009346E-1
86 22 4.999999687190464E-1
86 36 4.999999694021789E-1
86 38 4.9999993284640615E-1
86 41 4.999999136039745E-1
86 45 4.9999996562124366E-1
86 49 9.99999978320135E-1
86 77 4.9999992003453136E-1
86 79 9.999999432627582E-1
86 99 9.9999993912645E-1
86 106 4.999999489185775E-1
86 107 9.999999819775365E-1
86 120 9.99999951275216E-1
86 121 9.999999989927778E-1
87 37 9.999999896704698E-1
87 40 9.999999936700855E-1
87 67 9.999999851022446E-1
87 71 9.999999968295313E-1
87 108 9.999999855874137E-1
87 114 9.999999908240518E-1
87 118 9.999999907948879E-1
87 125 9.9999999234829E-1
87 128 9.99999998923676E-1
88 2 9.999999995320792E-1
88 10 4.9999999032313364E-1
88 19 4.9999998329316936E-1
88 30 4.999999855731241E-1
88 31 4.999999969949323E-1
88 56 9.999999947477671E-1
88 58 4.9999999034377385E-1
88 59 4.999999881290798E-1
88 62 9.999999937650208E-1
88 85 4.9999999465248984E-1
88 89 4.999999862373434E-1
88 97 4.999999801352372E-1
88 103 4.999999719174419E-1
88 115 9.999999994135147E-1
88 119 4.9999996806542446E-1
88 127 4.999999952727943E-1
88 129 4.99999994034255E-1
89 2 4.999999824329945E-1
89 10 9.999999731106253E-1
89 19 4.9999997751264635E-1
89 30 9.99999965901377E-1
89 59 9.999999836389392E-1
89 82 4.9999995632379846E-1
89 88 4.999999862373434E-1
89 97 9.999999586447517E-1
89 103 4.999999759899011E-1
89 113 4.9999997484958575E-1
89 115 4.999999853888865E-1
89 119 9.999999699530575E-1
89 136 4.99999953386694E-1
90 4 4.9999997861239354E-1
90 7 4.9999998763205616E-1
90 9 4.9999993066608756E-1
90 14 9.999999875143585E-1
90 18 9.999999893706372E-1
90 29 9.999999863264214E-1
90 52 9.99999996031474E-1
90 57 9.999999829205148E-1
90 63 4.9999990068150607E-1
90 66 9.999999914338727E-1
90 76 4.9999998605967744E-1
90 80 4.999999875183135E-1
90 81 9.999999974310206E-1
90 83 9.999999988352783E-1
90 132 9.999999858190441E-1
91 31 4.9999999569398484E-1
91 39 9.99999999379628E-1
91 58 9.999999947177823E-1
91 75 9.999999967220068E-1
91 85 9.999999933558235E-1
91 123 9.999999866528428E-1
91 127 9.999999908803568E-1
91 129 9.999999921233407E-1
91 135 9.999999991133521E-1
92 1 9.999999882582409E-1
92 5 9.999999890697824E-1
92 13 4.9999996747269E-1
92 16 9.999999878781649E-1
92 24 9.999999956056251E-1
92 43 9.999999965023744E-1
92 69 4.999999796829092E-1
92 70 9.999999870310959E-1
92 96 9.9999999244407E-1
92 98 4.9999992431305235E-1
92 102 4.999999609200288E-1
92 123 4.9999999049801697E-1
92 126 9.99999999999998E-1
93 13 4.999998565491167E-1
93 41 4.999998662128927E-1
93 54 9.999999054922006E-1
93 72 4.9999987500590604E-1
93 77 4.999998446706332E-1
93 95 9.999998592946453E-1
93 98 4.999999126931525E-1
93 103 4.999998519161171E-1
93 119 4.999998617656707E-1
94 29 4.9999998596421846E-1
94 33 9.999999827990471E-1
94 42 4.999999668981664E-1
94 48 9.999999957574112E-1
94 50 9.99999988639849E-1
94 57 9.999999793167048E-1
94 68 9.999999901858747E-1
94 74 4.999999691982043E-1
94 76 9.99999983515959E-1
94 84 9.999999867093301E-1
94 104 4.9999997854166944E-1
94 111 9.999999847768632E-1
94 117 9.999999930035314E-1
95 38 4.999999014556496E-1
95 41 9.999999797181743E-1
95 72 4.999999030579478E-1
95 77 4.99999917169634E-1
95 79 4.999999186465512E-1
95 93 9.999998592946453E-1
95 99 4.9999992962935835E-1
95 107 4.999999033318559E-1
95 120 4.999999311866218E-1
96 1 4.999999814896322E-1
96 5 9.999999993059147E-1
96 13 4.9999995120820945E-1
96 16 9.99999997751895E-1
96 24 9.999999978109003E-1
96 43 9.999999910901691E-1
96 70 9.999999989142507E-1
96 75 4.999999909557698E-1
96 92 9.9999999244407E-1
96 123 9.999999971059308E-1
96 126 9.99999992437923E-1
96 129 4.999999933728769E-1
97 19 9.99999999053679E-1
97 30 9.999999991316333E-1
97 56 4.9999998042600075E-1
97 62 4.9999998264445433E-1
97 73 4.999999400219567E-1
97 82 9.999999697729703E-1
97 88 4.999999801352372E-1
97 89 9.999999586447517E-1
97 112 4.999999292362272E-1
97 115 4.9999998397975276E-1
97 116 4.9999992956631095E-1
97 136 9.999999671010664E-1
98 1 4.9999995105791634E-1
98 10 4.9999991544548494E-1
98 13 9.999999816901164E-1
98 46 4.999998624035221E-1
98 54 9.99999916850547E-1
98 92 4.9999992431305235E-1
98 93 4.999999126931525E-1
98 102 9.999998959543108E-1
98 103 4.999999463791199E-1
98 119 4.999999270566799E-1
98 126 4.999999243109324E-1
99 38 9.999999793541591E-1
99 41 4.9999994454765406E-1
99 72 9.999999226420845E-1
99 77 9.999999742623052E-1
99 79 9.99999999203214E-1
99 86 9.9999993912645E-1
99 95 4.9999992962935835E-1
99 106 9.999999786011621E-1
99 107 9.999999871462635E-1
99 120 9.999999116685462E-1
99 121 4.999999622860412E-1
100 7 9.999999844648787E-1
100 8 4.99999991370393E-1
100 14 9.999999932647057E-1
100 18 9.999999851289284E-1
100 20 9.999999860855936E-1
100 65 9.999999919307394E-1
100 66 4.999999921815828E-1
100 78 9.999999968245261E-1
100 80 4.99999987687116E-1
100 109 9.999999966844277E-1
100 132 9.999999932535212E-1
100 134 9.999999927993245E-1
101 1 4.999998358427051E-1
101 11 9.999998854184602E-1
101 23 4.999998556502218E-1
101 32 9.999998959245279E-1
101 46 9.999998787635777E-1
101 69 4.9999989599431427E-1
101 102 4.999999141024884E-1
101 110 4.999999328523032E-1
101 114 4.999998287316975E-1
102 1 9.999999684963562E-1
102 13 9.999999458325645E-1
102 24 4.9999994232200007E-1
102 43 4.999999545042869E-1
102 46 4.999999166427963E-1
102 69 9.999999716142814E-1
102 92 4.999999609200288E-1
102 98 9.999998959543108E-1
102 101 4.999999141024884E-1
102 110 9.999999599369499E-1
102 126 4.99999960929297E-1
103 2 4.999999698325443E-1
103 10 9.999999904033038E-1
103 13 4.99999963764136E-1
103 54 9.99999941650442E-1
103 59 9.999999902681763E-1
103 70 4.999999706189272E-1
103 88 4.999999719174419E-1
103 89 4.999999759899011E-1
103 93 4.999998519161171E-1
103 98 4.999999463791199E-1
103 113 4.999999434581386E-1
103 119 9.999999924977279E-1
103 123 4.999999705675337E-1
104 27 4.9999993979282903E-1
104 33 9.999999495936546E-1
104 34 4.9999978838837006E-1
104 35 4.999999344298753E-1
104 47 9.999999885736525E-1
104 48 4.9999998223743936E-1
104 53 9.999999384361856E-1
104 57 4.999999710753685E-1
104 68 9.999999860648221E-1
104 94 4.9999997854166944E-1
104 111 9.999999857196049E-1
104 117 9.999999720942563E-1
105 21 9.999998383077948E-1
105 27 4.9999982678096977E-1
105 51 9.999998598478675E-1
105 53 4.9999977333065504E-1
105 55 9.999997879541307E-1
105 60 9.999999392262167E-1
105 122 4.999998709779862E-1
105 130 9.99999912119934E-1
105 131 9.999999045611706E-1
106 3 4.999999304774703E-1
106 12 9.999999317725071E-1
106 38 9.999999935578389E-1
106 72 9.99999944213854E-1
106 77 9.999999818566647E-1
106 79 9.999999844225552E-1
106 86 4.999999489185775E-1
106 99 9.999999786011621E-1
106 107 9.999999595962311E-1
106 113 4.9999993880092763E-1
107 15 9.999999591431724E-1
107 38 9.999999443597167E-1
107 41 4.999999343962348E-1
107 72 4.999999254927345E-1
107 77 9.999999291304688E-1
107 79 9.999999891603017E-1
107 86 9.999999819775365E-1
107 95 4.999999033318559E-1
107 99 9.999999871462635E-1
107 106 9.999999595962311E-1
107 120 9.9999994024809E-1
107 121 9.999999732876306E-1
108 6 9.999999925559097E-1
108 11 4.9999994429693023E-1
108 23 4.999999898828696E-1
108 26 9.999999926674951E-1
108 32 4.999999366251234E-1
108 37 9.999999982174904E-1
108 40 9.999999945485164E-1
108 44 9.999999942553672E-1
108 67 9.999999963315843E-1
108 71 4.9999998483636005E-1
108 87 9.999999855874137E-1
108 114 9.999999956959809E-1
108 125 9.99999998168352E-1
108 128 4.999999883368865E-1
109 8 9.999999938082327E-1
109 14 9.999999871425784E-1
109 18 4.9999999167747433E-1
109 20 9.999999944520117E-1
109 61 4.9999999243351895E-1
109 65 9.999999975202986E-1
109 78 9.999999963869425E-1
109 100 9.999999966844277E-1
109 132 9.999999895579971E-1
109 133 9.999999895097701E-1
109 134 9.999999971774057E-1
110 1 4.99999966666833E-1
110 11 9.999999255589839E-1
110 32 9.999999197669216E-1
110 43 4.9999995918175644E-1
110 46 4.999998657387093E-1
110 69 9.99999989312339E-1
110 101 4.999999328523032E-1
110 102 9.999999599369499E-1
110 114 4.999999657468305E-1
110 118 4.9999996460513785E-1
110 126 4.9999995379072243E-1
111 33 4.9999997809007884E-1
111 47 4.999999754577855E-1
111 48 9.999999939294048E-1
111 52 4.999999838502516E-1
111 53 4.9999993647018925E-1
111 57 9.999999851781086E-1
111 68 9.999999988876046E-1
111 74 4.9999994113799556E-1
111 76 9.999999696443573E-1
111 84 9.999999810083373E-1
111 94 9.999999847768632E-1
111 104 9.999999857196049E-1
111 117 9.99999980834742E-1
112 3 9.99999986881584E-1
112 12 9.999999430422757E-1
112 30 4.9999992042975494E-1
112 73 9.999999952560473E-1
112 82 9.999999565835789E-1
112 97 4.999999292362272E-1
112 113 4.9999992648851727E-1
112 116 9.999999963044104E-1
112 136 9.999999584514184E-1
113 3 4.9999992072615473E-1
113 10 4.9999994121431257E-1
113 38 9.999999101202058E-1
113 54 9.99999880659434E-1
113 59 4.9999995614808584E-1
113 72 9.999999676172573E-1
113 77 9.999999216179262E-1
113 89 4.9999997484958575E-1
113 103 4.999999434581386E-1
113 106 4.9999993880092763E-1
113 112 4.9999992648851727E-1
113 119 9.999999372825062E-1
114 6 4.999999886047275E-1
114 11 4.9999994719839475E-1
114 23 4.999999857374E-1
114 26 4.999999887508084E-1
114 32 4.999999399076464E-1
114 37 9.999999922597466E-1
114 40 9.999999897451732E-1
114 44 4.9999999005810786E-1
114 67 9.999999869109546E-1
114 69 4.9999996650862866E-1
114 71 9.999999810897E-1
114 87 9.999999908240518E-1
114 101 4.999998287316975E-1
114 108 9.999999956959809E-1
114 110 4.999999657468305E-1
114 118 9.999999804610288E-1
114 125 9.99999994257634E-1
114 128 9.999999848487267E-1
115 2 9.999999989845845E-1
115 10 4.9999998682061686E-1
115 19 4.999999870686665E-1
115 30 4.999999887975432E-1
115 31 9.999999942185511E-1
115 56 9.999999965393371E-1
115 58 4.9999999164178294E-1
115 59 4.999999847834303E-1
115 62 9.999999961899821E-1
115 85 4.9999999540230183E-1
115 88 9.999999994135147E-1
115 89 4.999999853888865E-1
115 97 4.9999998397975276E-1
115 119 4.999999630208571E-1
115 127 9.999999924504698E-1
115 129 4.9999999261925115E-1
116 3 9.999999747342635E-1
116 12 9.999999166691209E-1
116 19 4.99999918492169E-1
116 30 4.9999991971979263E-1
116 73 9.999999991467838E-1
116 82 9.999999593419002E-1
116 97 4.9999992956631095E-1
116 112 9.999999963044104E-1
116 136 9.999999620712452E-1
117 33 9.999999949686035E-1
117 35 4.9999993414430005E-1
117 42 4.999999669128771E-1
117 47 4.9999996502810545E-1
117 48 9.999999841487618E-1
117 50 9.999999728588118E-1
117 68 9.999999889557887E-1
117 74 9.999999578650998E-1
117 84 4.999999813473074E-1
117 94 9.999999930035314E-1
117 104 9.999999720942563E-1
117 111 9.99999980834742E-1
118 16 4.999999849933237E-1
118 24 4.9999998605119916E-1
118 40 4.9999998491500963E-1
118 43 9.999999803953807E-1
118 69 4.999999782790502E-1
118 71 9.99999996595718E-1
118 87 9.999999907948879E-1
118 110 4.9999996460513785E-1
118 114 9.999999804610288E-1
118 125 4.999999849402308E-1
118 128 9.999999939637194E-1
119 2 4.999999642299844E-1
119 10 9.999999822648157E-1
119 54 9.999999520297358E-1
119 59 9.999999900842064E-1
119 72 4.9999993225163447E-1
119 88 4.9999996806542446E-1
119 89 9.999999699530575E-1
119 93 4.999998617656707E-1
119 98 4.999999270566799E-1
119 103 9.999999924977279E-1
119 113 9.999999372825062E-1
119 115 4.999999630208571E-1
120 15 4.999999548047966E-1
120 41 9.999999441160137E-1
120 45 9.999999469887724E-1
120 49 4.999999619884295E-1
120 79 4.9999995175674716E-1
120 86 9.99999951275216E-1
120 95 4.999999311866218E-1
120 99 9.999999116685462E-1
120 107 9.9999994024809E-1
120 121 9.99999954795395E-1
121 15 9.999999922372473E-1
121 22 4.9999997562607107E-1
121 36 4.9999996805996016E-1
121 41 4.999999115726578E-1
121 45 9.99999946312612E-1
121 49 9.999999858633046E-1
121 64 4.99999964731944E-1
121 79 4.9999996420835163E-1
121 86 9.999999989927778E-1
121 99 4.999999622860412E-1
121 107 9.999999732876306E-1
121 120 9.99999954795395E-1
122 21 9.999998829889827E-1
122 27 9.999999931913465E-1
122 34 4.999998581401556E-1
122 47 9.999999025606999E-1
122 51 9.999998744695818E-1
122 53 9.99999970460791E-1
122 55 9.999999549992934E-1
122 60 9.999998707722736E-1
122 105 4.999998709779862E-1
122 130 9.999998690111767E-1
122 131 9.999998604151721E-1
123 5 9.999999969995864E-1
123 10 4.999999843838169E-1
123 16 9.999999941903973E-1
123 24 9.999999903551164E-1
123 39 4.9999999201212364E-1
123 43 4.999999891696815E-1
123 70 9.999999994088711E-1
123 75 4.9999999171490456E-1
123 91 9.999999866528428E-1
123 92 4.9999999049801697E-1
123 96 9.999999971059308E-1
123 103 4.999999705675337E-1
123 126 4.999999904926068E-1
123 129 9.999999960254312E-1
123 135 9.999999926436677E-1
124 8 4.9999996831085375E-1
124 17 9.999999945089965E-1
124 25 9.999999960895507E-1
124 28 9.999999886200432E-1
124 36 9.999999801286967E-1
124 61 4.9999997464223056E-1
124 64 9.999999740671907E-1
124 65 4.999999577950803E-1
124 133 4.999999726936352E-1
125 6 9.999999918430508E-1
125 11 4.999999297468931E-1
125 23 4.999999829432263E-1
125 26 9.999999922095046E-1
125 32 4.999999211753521E-1
125 37 9.99999999750854E-1
125 40 9.999999989900282E-1
125 44 9.999999910156875E-1
125 67 9.999999982232507E-1
125 71 4.999999896751159E-1
125 87 9.9999999234829E-1
125 108 9.99999998168352E-1
125 114 9.99999994257634E-1
125 118 4.999999849402308E-1
125 128 4.9999999280803625E-1
126 1 9.999999882634275E-1
126 5 9.999999890637195E-1
126 13 4.999999674719763E-1
126 16 4.9999999393678773E-1
126 24 9.999999956035901E-1
126 43 9.999999965046787E-1
126 69 4.9999997969189003E-1
126 70 9.99999987022003E-1
126 92 9.99999999999998E-1
126 96 9.99999992437923E-1
126 98 4.999999243109324E-1
126 102 4.99999960929297E-1
126 110 4.9999995379072243E-1
126 123 4.999999904926068E-1
127 2 9.999999937278216E-1
127 19 4.9999998126525813E-1
127 30 4.9999998105082044E-1
127 31 9.999999987555849E-1
127 39 9.999999949005434E-1
127 56 9.999999991414555E-1
127 58 9.99999998201174E-1
127 62 9.999999987395904E-1
127 85 9.999999997975858E-1
127 88 4.999999952727943E-1
127 91 9.999999908803568E-1
127 115 9.999999924504698E-1
127 129 4.999999950870748E-1
128 37 4.9999999106226034E-1
128 40 9.999999881217465E-1
128 67 4.9999998833216375E-1
128 71 9.999999993422061E-1
128 87 9.99999998923676E-1
128 108 4.999999883368865E-1
128 114 9.999999848487267E-1
128 118 9.999999939637194E-1
128 125 4.9999999280803625E-1
129 2 9.99999991802783E-1
129 10 4.999999863075571E-1
129 31 9.999999954715488E-1
129 39 9.999999924459173E-1
129 58 4.999999934481151E-1
129 59 4.999999792339632E-1
129 70 9.999999923752991E-1
129 75 4.999999916924961E-1
129 85 4.9999999599263256E-1
129 88 4.99999994034255E-1
129 91 9.999999921233407E-1
129 96 4.999999933728769E-1
129 115 4.9999999261925115E-1
129 123 9.999999960254312E-1
129 127 4.999999950870748E-1
129 135 9.99999995760975E-1
130 21 9.999997643620027E-1
130 27 9.999998067151754E-1
130 51 9.999999939255771E-1
130 53 4.9999988259724754E-1
130 55 9.999997972460418E-1
130 60 9.999999972087765E-1
130 105 9.99999912119934E-1
130 122 9.999998690111767E-1
130 131 9.999999996596465E-1
131 21 9.999997462473649E-1
131 27 4.999998986281123E-1
131 51 9.999999954344067E-1
131 53 4.9999987912819605E-1
131 55 9.999997817485619E-1
131 60 9.999999952036441E-1
131 105 9.999999045611706E-1
131 122 9.999998604151721E-1
131 130 9.999999996596465E-1
132 4 4.999999715167585E-1
132 7 4.999999917470995E-1
132 14 9.999999995422864E-1
132 18 9.999999981896991E-1
132 20 9.999999885515719E-1
132 22 4.999999798770794E-1
132 65 4.9999998858520356E-1
132 66 9.999999927454464E-1
132 78 4.999999908114473E-1
132 80 4.999999883443032E-1
132 81 9.999999952758251E-1
132 83 9.999999922383794E-1
132 90 9.999999858190441E-1
132 100 9.999999932535212E-1
132 109 9.999999895579971E-1
132 134 4.999999885120004E-1
133 8 9.999999989081509E-1
133 17 4.999999854082059E-1
133 20 9.999999890788804E-1
133 25 4.9999997485148184E-1
133 28 9.999999827447852E-1
133 36 4.999999827455038E-1
133 61 9.999999992581875E-1
133 64 9.999999866466355E-1
133 65 9.999999935649715E-1
133 78 9.999999824296687E-1
133 109 9.999999895097701E-1
133 124 4.999999726936352E-1
133 134 9.999999915395468E-1
134 8 9.99999996492122E-1
134 20 9.999999861389628E-1
134 61 9.999999859470382E-1
134 65 9.99999999845688E-1
134 78 9.999999982480948E-1
134 100 9.999999927993245E-1
134 109 9.999999971774057E-1
134 132 4.999999885120004E-1
134 133 9.999999915395468E-1
135 5 9.999999907560799E-1
135 16 4.9999999530772177E-1
135 31 4.9999999598583106E-1
135 39 9.999999980145974E-1
135 58 9.999999916093637E-1
135 70 4.999999945584544E-1
135 75 9.999999957538279E-1
135 85 9.999999920961757E-1
135 91 9.999999991133521E-1
135 123 9.999999926436677E-1
135 129 9.99999995760975E-1
136 3 9.999999015119365E-1
136 19 4.9999997811645186E-1
136 30 4.99999978387375E-1
136 73 9.999999725762015E-1
136 82 9.999999999043772E-1
136 89 4.99999953386694E-1
136 97 9.999999671010664E-1
136 112 9.999999584514184E-1
136 116 9.999999620712452E-1
