%%MatrixMarket matrix coordinate real general
%
136 136 706
1 13 4.999999839869917E-1
1 43 4.9999998899877535E-1
1 69 9.99999974448039E-1
1 92 4.9999999412912044E-1
1 98 4.9999995105791634E-1
1 102 4.999999842481781E-1
1 110 4.99999966666833E-1
1 126 4.9999999413171375E-1
2 31 4.9999999841037324E-1
2 56 4.9999999833175546E-1
2 88 9.999999995320792E-1
2 115 9.999999989845845E-1
3 12 9.999999829618141E-1
3 73 4.9999998407646357E-1
3 112 9.99999986881584E-1
3 116 9.999999747342635E-1
4 7 9.999999846088384E-1
4 9 4.999999778108602E-1
4 63 4.999999696838808E-1
4 66 4.999999879434476E-1
4 80 9.999999915439468E-1
4 90 4.9999997861239354E-1
5 16 9.999999994130373E-1
5 24 9.999999976735441E-1
5 70 9.999999980650682E-1
5 96 9.999999993059147E-1
5 123 4.999999984997932E-1
6 23 4.999999860761086E-1
6 26 9.999999999897637E-1
6 37 4.999999972134719E-1
6 44 9.999999990009276E-1
6 67 4.9999999860663025E-1
7 4 9.999999846088384E-1
7 9 4.999999440577699E-1
7 14 4.999999941877456E-1
7 63 4.999999351599822E-1
7 66 9.999999955341897E-1
7 80 9.999999989375158E-1
8 20 4.999999946289473E-1
8 61 9.999999963858056E-1
8 65 9.999999977127797E-1
8 133 9.999999989081509E-1
8 134 9.99999996492122E-1
9 4 4.999999778108602E-1
9 7 4.999999440577699E-1
9 63 9.999999820156081E-1
9 80 4.999999543739772E-1
10 59 9.999999978149784E-1
10 88 4.9999999032313364E-1
10 89 4.9999998655531264E-1
10 103 9.999999904033038E-1
10 119 9.999999822648157E-1
11 23 4.9999997696991555E-1
11 32 9.999999995047649E-1
11 101 4.999999427092301E-1
11 110 4.9999996277949194E-1
11 114 4.9999994719839475E-1
12 3 9.999999829618141E-1
12 106 4.9999996588625356E-1
12 112 4.9999997152113784E-1
12 116 4.9999995833456046E-1
13 1 4.999999839869917E-1
13 92 4.9999996747269E-1
13 98 9.999999816901164E-1
13 102 9.999999458325645E-1
14 7 4.999999941877456E-1
14 18 9.9999999673889E-1
14 66 9.999999958179883E-1
14 80 4.999999913702817E-1
14 81 9.999999962292758E-1
14 83 4.9999999644092835E-1
14 100 4.9999999663235284E-1
14 132 9.999999995422864E-1
15 36 4.999999863520939E-1
15 49 9.999999859446572E-1
15 86 9.99999992009346E-1
15 121 9.999999922372473E-1
16 5 9.999999994130373E-1
16 24 9.999999979490412E-1
16 43 4.9999999605836115E-1
16 70 9.99999995364932E-1
16 75 4.9999999559833835E-1
16 96 9.99999997751895E-1
17 25 9.999999969336882E-1
17 28 9.99999998428389E-1
17 36 9.999999934356466E-1
17 64 4.99999996221121E-1
17 124 9.999999945089965E-1
18 14 9.9999999673889E-1
18 22 4.9999998639094007E-1
18 81 9.999999962354479E-1
18 83 9.99999995242664E-1
18 132 9.999999981896991E-1
19 30 9.999999992247605E-1
19 62 4.999999871161009E-1
19 97 9.99999999053679E-1
19 115 4.999999870686665E-1
20 8 4.999999946289473E-1
20 22 4.9999998821618935E-1
20 109 4.9999999722600585E-1
20 132 4.9999999427578595E-1
20 133 4.999999945394402E-1
21 27 4.9999992634841E-1
21 34 4.9999990217061724E-1
21 55 9.999999794541673E-1
21 105 4.999999191538974E-1
21 122 4.9999994149449134E-1
22 18 4.9999998639094007E-1
22 20 4.9999998821618935E-1
22 45 9.999999748073712E-1
22 49 9.999999893267701E-1
23 6 4.999999860761086E-1
23 11 4.9999997696991555E-1
23 32 4.999999721069081E-1
23 44 4.9999999084840396E-1
23 108 4.999999898828696E-1
23 114 4.999999857374E-1
24 5 9.999999976735441E-1
24 16 9.999999979490412E-1
24 43 9.999999975693074E-1
24 92 4.9999999780281257E-1
24 96 9.999999978109003E-1
24 126 4.9999999780179505E-1
25 17 9.999999969336882E-1
25 28 9.999999910808012E-1
25 36 9.999999926766765E-1
25 124 9.999999960895507E-1
26 6 9.999999999897637E-1
26 37 4.9999999736830175E-1
26 44 9.999999988413384E-1
26 67 9.999999974852213E-1
27 21 4.9999992634841E-1
27 34 4.999998774852863E-1
27 47 4.9999997111755257E-1
27 53 9.999999878047218E-1
27 55 9.999999411019909E-1
27 122 9.999999931913465E-1
28 17 9.99999998428389E-1
28 25 9.999999910808012E-1
28 36 9.999999916291189E-1
28 64 9.99999995934861E-1
28 124 4.999999943100216E-1
29 52 9.999999952715221E-1
29 57 9.999999959918213E-1
29 76 9.999999974938129E-1
29 84 9.999999971275599E-1
30 19 9.999999992247605E-1
30 62 4.999999872002655E-1
30 82 4.99999980006244E-1
30 97 9.999999991316333E-1
30 115 4.999999887975432E-1
31 2 4.9999999841037324E-1
31 56 9.999999984584118E-1
31 58 4.999999977114407E-1
31 62 9.9999999721477E-1
31 85 9.999999989749196E-1
31 88 4.999999969949323E-1
31 127 9.999999987555849E-1
31 129 4.999999977357744E-1
32 11 9.999999995047649E-1
32 23 4.999999721069081E-1
32 101 9.999998959245279E-1
32 110 4.999999598834608E-1
33 35 4.9999994408070997E-1
33 42 4.999999793143801E-1
33 50 4.9999998562431486E-1
33 74 9.999999818622513E-1
33 94 4.9999999139952356E-1
33 117 9.999999949686035E-1
34 21 4.9999990217061724E-1
34 27 4.999998774852863E-1
34 35 9.999998874473134E-1
34 55 4.9999991847449743E-1
35 33 4.9999994408070997E-1
35 34 9.999998874473134E-1
35 47 4.999999406430529E-1
35 74 4.999999438273518E-1
36 15 4.999999863520939E-1
36 17 9.999999934356466E-1
36 25 9.999999926766765E-1
36 28 9.999999916291189E-1
36 64 9.999999950494929E-1
36 124 4.9999999006434837E-1
37 6 4.999999972134719E-1
37 26 4.9999999736830175E-1
37 40 9.999999988042666E-1
37 67 9.999999992668721E-1
37 108 9.999999982174904E-1
37 114 4.999999961298733E-1
37 125 9.99999999750854E-1
38 72 4.999999869168181E-1
38 77 9.999999970135826E-1
38 79 9.999999814829301E-1
38 99 9.999999793541591E-1
38 106 9.999999935578389E-1
39 58 9.999999976378335E-1
39 75 4.999999967123649E-1
39 85 4.9999999833410896E-1
39 91 9.99999999379628E-1
39 129 4.9999999622295865E-1
39 135 9.999999980145974E-1
40 37 9.999999988042666E-1
40 67 9.99999998011335E-1
40 71 4.999999909733041E-1
40 87 4.9999999683504276E-1
40 108 4.999999972742582E-1
40 125 9.999999989900282E-1
40 128 4.9999999406087325E-1
41 79 4.999999353378027E-1
41 95 9.999999797181743E-1
41 99 4.9999994454765406E-1
41 120 9.999999441160137E-1
42 33 4.999999793143801E-1
42 50 4.999999825575365E-1
42 74 9.999999825785132E-1
42 117 4.999999669128771E-1
43 1 4.9999998899877535E-1
43 16 4.9999999605836115E-1
43 24 9.999999975693074E-1
43 69 4.9999998206452895E-1
43 92 9.999999965023744E-1
43 126 9.999999965046787E-1
44 6 9.999999990009276E-1
44 23 4.9999999084840396E-1
44 26 9.999999988413384E-1
44 67 4.9999999769614584E-1
44 108 4.999999971276836E-1
45 22 9.999999748073712E-1
45 49 4.9999998486982977E-1
45 50 4.99999984773025E-1
45 76 4.9999997981799366E-1
45 120 4.999999734943862E-1
46 98 4.999998624035221E-1
46 101 9.999998787635777E-1
46 102 4.999999166427963E-1
46 110 4.999998657387093E-1
47 27 4.9999997111755257E-1
47 35 4.999999406430529E-1
47 53 9.999999797156951E-1
47 68 4.9999997481324593E-1
47 104 9.999999885736525E-1
47 111 4.999999754577855E-1
47 122 4.9999995128034996E-1
48 50 4.9999998817288993E-1
48 68 9.999999950043652E-1
48 76 4.999999945517113E-1
48 84 9.999999944776341E-1
48 94 9.999999957574112E-1
48 111 9.999999939294048E-1
48 117 4.999999920743809E-1
49 15 9.999999859446572E-1
49 22 9.999999893267701E-1
49 45 4.9999998486982977E-1
49 86 9.99999978320135E-1
49 121 9.999999858633046E-1
50 33 4.9999998562431486E-1
50 42 4.999999825575365E-1
50 45 4.99999984773025E-1
50 48 4.9999998817288993E-1
50 74 4.999999729495061E-1
50 76 4.9999999043398985E-1
50 84 4.999999879857946E-1
50 94 9.99999988639849E-1
51 60 9.999999833306823E-1
51 105 4.999999299239338E-1
51 122 4.999999372347909E-1
51 130 9.999999939255771E-1
51 131 9.999999954344067E-1
52 29 9.999999952715221E-1
52 57 9.999999954176804E-1
52 83 4.9999999610143764E-1
52 90 9.99999996031474E-1
53 27 9.999999878047218E-1
53 47 9.999999797156951E-1
53 55 4.999999377241188E-1
53 104 4.999999692180928E-1
53 122 9.99999970460791E-1
54 93 9.999999054922006E-1
54 98 9.99999916850547E-1
54 103 4.99999970825221E-1
54 119 4.999999760148679E-1
55 21 9.999999794541673E-1
55 27 9.999999411019909E-1
55 34 4.9999991847449743E-1
55 53 4.999999377241188E-1
55 122 9.999999549992934E-1
56 2 4.9999999833175546E-1
56 31 9.999999984584118E-1
56 62 9.999999998075314E-1
56 85 9.999999983060219E-1
56 88 4.9999999737388356E-1
56 115 4.9999999826966857E-1
56 127 9.999999991414555E-1
57 29 9.999999959918213E-1
57 52 9.999999954176804E-1
57 76 9.999999934467568E-1
57 84 9.999999977548368E-1
57 111 4.999999925890543E-1
58 31 4.999999977114407E-1
58 39 9.999999976378335E-1
58 85 9.999999986791407E-1
58 91 4.9999999735889117E-1
58 127 4.99999999100587E-1
59 10 9.999999978149784E-1
59 89 9.999999836389392E-1
59 103 9.999999902681763E-1
59 119 9.999999900842064E-1
60 51 9.999999833306823E-1
60 105 9.999999392262167E-1
60 130 9.999999972087765E-1
60 131 9.999999952036441E-1
61 8 9.999999963858056E-1
61 64 9.99999991370979E-1
61 65 4.99999994324112E-1
61 133 9.999999992581875E-1
62 19 4.999999871161009E-1
62 30 4.999999872002655E-1
62 31 9.9999999721477E-1
62 56 9.999999998075314E-1
62 85 4.9999999878936047E-1
62 115 4.9999999809499107E-1
62 127 9.999999987395904E-1
63 4 4.999999696838808E-1
63 7 4.999999351599822E-1
63 9 9.999999820156081E-1
63 80 4.9999994502633066E-1
64 17 4.99999996221121E-1
64 28 9.99999995934861E-1
64 36 9.999999950494929E-1
64 61 9.99999991370979E-1
65 8 9.999999977127797E-1
65 61 4.99999994324112E-1
65 78 9.999999972379537E-1
65 109 9.999999975202986E-1
65 133 4.9999999678248574E-1
65 134 9.99999999845688E-1
66 4 4.999999879434476E-1
66 7 9.999999955341897E-1
66 14 9.999999958179883E-1
66 80 9.99999993992809E-1
66 81 4.9999999800733047E-1
66 90 4.999999957169364E-1
67 6 4.9999999860663025E-1
67 26 9.999999974852213E-1
67 37 9.999999992668721E-1
67 40 9.99999998011335E-1
67 44 4.9999999769614584E-1
67 108 4.9999999816579216E-1
67 125 9.999999982232507E-1
68 47 4.9999997481324593E-1
68 48 9.999999950043652E-1
68 94 9.999999901858747E-1
68 104 4.9999999303241105E-1
68 111 9.999999988876046E-1
68 117 9.999999889557887E-1
69 1 9.99999974448039E-1
69 43 4.9999998206452895E-1
69 102 9.999999716142814E-1
69 110 9.99999989312339E-1
70 5 9.999999980650682E-1
70 16 9.99999995364932E-1
70 96 9.999999989142507E-1
70 123 9.999999994088711E-1
71 40 4.999999909733041E-1
71 87 9.999999968295313E-1
71 118 9.99999996595718E-1
71 128 9.999999993422061E-1
72 38 4.999999869168181E-1
72 77 9.999999856114745E-1
72 93 4.9999987500590604E-1
72 106 4.99999972106927E-1
72 113 9.999999676172573E-1
73 3 4.9999998407646357E-1
73 82 9.999999702172095E-1
73 112 9.999999952560473E-1
73 116 9.999999991467838E-1
73 136 9.999999725762015E-1
74 33 9.999999818622513E-1
74 35 4.999999438273518E-1
74 42 9.999999825785132E-1
74 50 4.999999729495061E-1
74 117 4.999999789325499E-1
75 16 4.9999999559833835E-1
75 39 4.999999967123649E-1
75 91 9.999999967220068E-1
75 135 9.999999957538279E-1
76 29 9.999999974938129E-1
76 45 4.9999997981799366E-1
76 48 4.999999945517113E-1
76 50 4.9999999043398985E-1
76 57 9.999999934467568E-1
76 84 9.999999985180107E-1
77 38 9.999999970135826E-1
77 72 9.999999856114745E-1
77 99 4.999999871311526E-1
77 106 9.999999818566647E-1
77 113 4.999999608089631E-1
78 65 9.999999972379537E-1
78 100 9.999999968245261E-1
78 109 9.999999963869425E-1
78 134 9.999999982480948E-1
79 38 9.999999814829301E-1
79 41 4.999999353378027E-1
79 99 9.99999999203214E-1
79 106 9.999999844225552E-1
79 107 9.999999891603017E-1
80 4 9.999999915439468E-1
80 7 9.999999989375158E-1
80 9 4.999999543739772E-1
80 14 4.999999913702817E-1
80 63 4.9999994502633066E-1
80 66 9.99999993992809E-1
81 14 9.999999962292758E-1
81 18 9.999999962354479E-1
81 66 4.9999999800733047E-1
81 83 9.999999993737275E-1
81 90 9.999999974310206E-1
81 132 4.9999999763791253E-1
82 30 4.99999980006244E-1
82 73 9.999999702172095E-1
82 97 9.999999697729703E-1
82 136 9.999999999043772E-1
83 14 4.9999999644092835E-1
83 18 9.99999995242664E-1
83 52 4.9999999610143764E-1
83 81 9.999999993737275E-1
83 90 9.999999988352783E-1
84 29 9.999999971275599E-1
84 48 9.999999944776341E-1
84 50 4.999999879857946E-1
84 57 9.999999977548368E-1
84 76 9.999999985180107E-1
85 31 9.999999989749196E-1
85 39 4.9999999833410896E-1
85 56 9.999999983060219E-1
85 58 9.999999986791407E-1
85 62 4.9999999878936047E-1
85 127 9.999999997975858E-1
86 15 9.99999992009346E-1
86 49 9.99999978320135E-1
86 107 9.999999819775365E-1
86 120 4.99999975637608E-1
86 121 9.999999989927778E-1
87 40 4.9999999683504276E-1
87 71 9.999999968295313E-1
87 114 4.999999954120259E-1
87 118 4.9999999539744394E-1
87 125 4.99999996174145E-1
87 128 9.99999998923676E-1
88 2 9.999999995320792E-1
88 10 4.9999999032313364E-1
88 31 4.999999969949323E-1
88 56 4.9999999737388356E-1
88 89 4.999999862373434E-1
88 115 9.999999994135147E-1
89 10 4.9999998655531264E-1
89 59 9.999999836389392E-1
89 88 4.999999862373434E-1
89 103 4.999999759899011E-1
89 113 4.9999997484958575E-1
89 115 4.999999853888865E-1
89 119 4.9999998497652876E-1
90 4 4.9999997861239354E-1
90 52 9.99999996031474E-1
90 66 4.999999957169364E-1
90 81 9.999999974310206E-1
90 83 9.999999988352783E-1
91 39 9.99999999379628E-1
91 58 4.9999999735889117E-1
91 75 9.999999967220068E-1
91 135 9.999999991133521E-1
92 1 4.9999999412912044E-1
92 13 4.9999996747269E-1
92 24 4.9999999780281257E-1
92 43 9.999999965023744E-1
92 96 4.99999996222035E-1
92 126 9.99999999999998E-1
93 54 9.999999054922006E-1
93 72 4.9999987500590604E-1
93 95 9.999998592946453E-1
93 98 4.999999126931525E-1
94 33 4.9999999139952356E-1
94 48 9.999999957574112E-1
94 50 9.99999988639849E-1
94 68 9.999999901858747E-1
94 117 9.999999930035314E-1
95 41 9.999999797181743E-1
95 93 9.999998592946453E-1
95 99 4.9999992962935835E-1
95 120 4.999999311866218E-1
96 5 9.999999993059147E-1
96 16 9.99999997751895E-1
96 24 9.999999978109003E-1
96 70 9.999999989142507E-1
96 92 4.99999996222035E-1
96 123 4.999999985529654E-1
96 126 4.999999962189615E-1
97 19 9.99999999053679E-1
97 30 9.999999991316333E-1
97 82 9.999999697729703E-1
97 115 4.9999998397975276E-1
97 136 4.999999835505332E-1
98 1 4.9999995105791634E-1
98 13 9.999999816901164E-1
98 46 4.999998624035221E-1
98 54 9.99999916850547E-1
98 93 4.999999126931525E-1
98 102 4.999999479771554E-1
99 38 9.999999793541591E-1
99 41 4.9999994454765406E-1
99 77 4.999999871311526E-1
99 79 9.99999999203214E-1
99 95 4.9999992962935835E-1
99 106 9.999999786011621E-1
99 107 9.999999871462635E-1
100 14 4.9999999663235284E-1
100 78 9.999999968245261E-1
100 109 9.999999966844277E-1
100 132 9.999999932535212E-1
101 11 4.999999427092301E-1
101 32 9.999998959245279E-1
101 46 9.999998787635777E-1
101 110 4.999999328523032E-1
102 1 4.999999842481781E-1
102 13 9.999999458325645E-1
102 46 4.999999166427963E-1
102 69 9.999999716142814E-1
102 98 4.999999479771554E-1
102 110 9.999999599369499E-1
103 10 9.999999904033038E-1
103 54 4.99999970825221E-1
103 59 9.999999902681763E-1
103 89 4.999999759899011E-1
103 119 9.999999924977279E-1
104 47 9.999999885736525E-1
104 53 4.999999692180928E-1
104 68 4.9999999303241105E-1
104 111 9.999999857196049E-1
104 117 4.9999998604712814E-1
105 21 4.999999191538974E-1
105 51 4.999999299239338E-1
105 60 9.999999392262167E-1
105 130 9.99999912119934E-1
105 131 9.999999045611706E-1
106 12 4.9999996588625356E-1
106 38 9.999999935578389E-1
106 72 4.99999972106927E-1
106 77 9.999999818566647E-1
106 79 9.999999844225552E-1
106 99 9.999999786011621E-1
107 79 9.999999891603017E-1
107 86 9.999999819775365E-1
107 99 9.999999871462635E-1
107 121 9.999999732876306E-1
108 23 4.999999898828696E-1
108 37 9.999999982174904E-1
108 40 4.999999972742582E-1
108 44 4.999999971276836E-1
108 67 4.9999999816579216E-1
108 114 9.999999956959809E-1
108 125 9.99999998168352E-1
109 20 4.9999999722600585E-1
109 65 9.999999975202986E-1
109 78 9.999999963869425E-1
109 100 9.999999966844277E-1
109 134 9.999999971774057E-1
110 1 4.99999966666833E-1
110 11 4.9999996277949194E-1
110 32 4.999999598834608E-1
110 46 4.999998657387093E-1
110 69 9.99999989312339E-1
110 101 4.999999328523032E-1
110 102 9.999999599369499E-1
110 114 4.999999657468305E-1
111 47 4.999999754577855E-1
111 48 9.999999939294048E-1
111 57 4.999999925890543E-1
111 68 9.999999988876046E-1
111 104 9.999999857196049E-1
112 3 9.99999986881584E-1
112 12 4.9999997152113784E-1
112 73 9.999999952560473E-1
112 116 9.999999963044104E-1
112 136 4.999999792257092E-1
113 72 9.999999676172573E-1
113 77 4.999999608089631E-1
113 89 4.9999997484958575E-1
113 119 4.999999686412531E-1
114 11 4.9999994719839475E-1
114 23 4.999999857374E-1
114 37 4.999999961298733E-1
114 87 4.999999954120259E-1
114 108 9.999999956959809E-1
114 110 4.999999657468305E-1
114 118 4.999999902305144E-1
114 125 4.99999997128817E-1
115 2 9.999999989845845E-1
115 19 4.999999870686665E-1
115 30 4.999999887975432E-1
115 56 4.9999999826966857E-1
115 62 4.9999999809499107E-1
115 88 9.999999994135147E-1
115 89 4.999999853888865E-1
115 97 4.9999998397975276E-1
116 3 9.999999747342635E-1
116 12 4.9999995833456046E-1
116 73 9.999999991467838E-1
116 112 9.999999963044104E-1
116 136 9.999999620712452E-1
117 33 9.999999949686035E-1
117 42 4.999999669128771E-1
117 48 4.999999920743809E-1
117 68 9.999999889557887E-1
117 74 4.999999789325499E-1
117 94 9.999999930035314E-1
117 104 4.9999998604712814E-1
118 71 9.99999996595718E-1
118 87 4.9999999539744394E-1
118 114 4.999999902305144E-1
118 128 9.999999939637194E-1
119 10 9.999999822648157E-1
119 54 4.999999760148679E-1
119 59 9.999999900842064E-1
119 89 4.9999998497652876E-1
119 103 9.999999924977279E-1
119 113 4.999999686412531E-1
120 41 9.999999441160137E-1
120 45 4.999999734943862E-1
120 86 4.99999975637608E-1
120 95 4.999999311866218E-1
120 121 4.999999773976975E-1
121 15 9.999999922372473E-1
121 49 9.999999858633046E-1
121 86 9.999999989927778E-1
121 107 9.999999732876306E-1
121 120 4.999999773976975E-1
122 21 4.9999994149449134E-1
122 27 9.999999931913465E-1
122 47 4.9999995128034996E-1
122 51 4.999999372347909E-1
122 53 9.99999970460791E-1
122 55 9.999999549992934E-1
123 5 4.999999984997932E-1
123 70 9.999999994088711E-1
123 96 4.999999985529654E-1
123 129 9.999999960254312E-1
124 17 9.999999945089965E-1
124 25 9.999999960895507E-1
124 28 4.999999943100216E-1
124 36 4.9999999006434837E-1
125 37 9.99999999750854E-1
125 40 9.999999989900282E-1
125 67 9.999999982232507E-1
125 87 4.99999996174145E-1
125 108 9.99999998168352E-1
125 114 4.99999997128817E-1
126 1 4.9999999413171375E-1
126 24 4.9999999780179505E-1
126 43 9.999999965046787E-1
126 92 9.99999999999998E-1
126 96 4.999999962189615E-1
127 31 9.999999987555849E-1
127 56 9.999999991414555E-1
127 58 4.99999999100587E-1
127 62 9.999999987395904E-1
127 85 9.999999997975858E-1
128 40 4.9999999406087325E-1
128 71 9.999999993422061E-1
128 87 9.99999998923676E-1
128 118 9.999999939637194E-1
129 31 4.999999977357744E-1
129 39 4.9999999622295865E-1
129 123 9.999999960254312E-1
129 135 9.99999995760975E-1
130 51 9.999999939255771E-1
130 60 9.999999972087765E-1
130 105 9.99999912119934E-1
130 131 9.999999996596465E-1
131 51 9.999999954344067E-1
131 60 9.999999952036441E-1
131 105 9.999999045611706E-1
131 130 9.999999996596465E-1
132 14 9.999999995422864E-1
132 18 9.999999981896991E-1
132 20 4.9999999427578595E-1
132 81 4.9999999763791253E-1
132 100 9.999999932535212E-1
133 8 9.999999989081509E-1
133 20 4.999999945394402E-1
133 61 9.999999992581875E-1
133 65 4.9999999678248574E-1
133 134 4.999999957697734E-1
134 8 9.99999996492122E-1
134 65 9.99999999845688E-1
134 78 9.999999982480948E-1
134 109 9.999999971774057E-1
134 133 4.999999957697734E-1
135 39 9.999999980145974E-1
135 75 9.999999957538279E-1
135 91 9.999999991133521E-1
135 129 9.99999995760975E-1
136 73 9.999999725762015E-1
136 82 9.999999999043772E-1
136 97 4.999999835505332E-1
136 112 4.999999792257092E-1
136 116 9.999999620712452E-1
