%%MatrixMarket matrix coordinate real symmetric
%
132 132 586
7 4 9.911517587789733e-01
8 4 9.746993466187978e-01
8 7 4.687176042505588e-01
9 2 4.937266116128670e-01
9 6 4.910719879726848e-01
11 3 9.902095488087582e-01
12 1 4.908382723632108e-01
13 4 4.865422901546930e-01
13 7 9.933099115655302e-01
15 5 9.996611160859774e-01
17 13 9.981186454724930e-01
18 2 4.895083096588044e-01
19 17 9.933955339043391e-01
21 14 4.869438941084728e-01
21 17 4.922028888586924e-01
21 19 4.932415364589809e-01
22 1 4.913638587128358e-01
22 5 9.986574910264876e-01
22 15 9.988163757913360e-01
23 14 4.825655940041059e-01
23 16 9.982309263027047e-01
25 20 9.184570277149352e-01
26 16 9.990928856307344e-01
26 23 9.948628531875172e-01
27 21 4.888570301157845e-01
28 2 4.905920105310594e-01
28 18 9.995524384774794e-01
29 2 9.981658256192536e-01
30 10 9.997140675990450e-01
32 20 8.931657755064205e-01
32 25 4.340309953417121e-01
33 25 4.555578383298872e-01
33 31 4.687300223850998e-01
33 32 9.370735529545163e-01
34 14 9.843616149272796e-01
34 16 9.962165923073499e-01
34 23 9.957800791492333e-01
34 26 9.951779023066335e-01
35 24 9.969652682169816e-01
36 11 9.444987416301117e-01
37 29 4.984401659021312e-01
38 31 4.566627956894652e-01
39 24 9.948599259482336e-01
39 35 9.993097626414468e-01
40 38 9.585165646416756e-01
41 31 9.763932983226565e-01
41 38 9.772883900681745e-01
42 1 4.936875335543749e-01
42 5 9.945680034916277e-01
42 15 9.954581503738229e-01
42 22 9.985973822481776e-01
43 10 4.661476040881442e-01
43 24 9.993311551469291e-01
43 30 4.619320968574663e-01
43 35 9.962291681318259e-01
43 39 4.964666119850748e-01
44 16 4.864917814614506e-01
44 19 9.942406727162765e-01
44 26 4.909040087186681e-01
45 1 4.921575987780744e-01
45 22 4.955362722986071e-01
45 42 9.965430623434023e-01
46 1 4.118484800541743e-01
46 12 4.222110031664052e-01
47 8 4.605705574642127e-01
47 25 9.671938741368522e-01
47 32 4.088601066581193e-01
47 33 4.668727842818055e-01
48 27 4.953896801675949e-01
48 31 4.899125504583535e-01
48 47 4.755993078041487e-01
49 14 9.919165964643269e-01
49 19 4.876556171339847e-01
49 21 9.938557020974432e-01
50 31 9.835345954231873e-01
50 38 4.726096224758172e-01
50 41 9.800572549521852e-01
50 48 4.932168718114929e-01
51 17 4.934747466176529e-01
51 27 9.972732668579876e-01
52 25 9.929825799759521e-01
52 32 4.169173114551315e-01
52 33 4.566641970764605e-01
52 47 9.883551692322500e-01
53 6 9.648042223890337e-01
54 20 9.882059200086499e-01
54 25 9.665612303825507e-01
54 32 9.101428291837131e-01
54 52 9.306031421139808e-01
55 2 9.980752006970967e-01
55 18 4.914564383500276e-01
55 28 4.916309556550126e-01
55 29 9.991102066990390e-01
56 27 9.976881554626437e-01
56 48 9.957816619775393e-01
56 51 9.973574393403244e-01
57 29 9.973604347370220e-01
57 37 9.986368979263481e-01
57 55 9.970839668285428e-01
58 2 4.919112690565369e-01
58 6 9.900370817050049e-01
58 9 9.987390559507646e-01
58 53 4.724095571624164e-01
59 20 8.918307887752630e-01
59 25 4.470719751406056e-01
59 52 4.337330771418969e-01
59 54 9.020007126574365e-01
60 14 4.852306651221637e-01
60 16 4.928604324947978e-01
60 19 9.931635613192789e-01
60 23 4.875390896518392e-01
60 26 9.917842098684757e-01
60 34 4.923713600668106e-01
60 44 9.960284798608043e-01
60 49 4.854665974718761e-01
61 2 9.974057484726618e-01
61 18 4.926152753444283e-01
61 28 4.926631606900925e-01
61 29 9.983929628135817e-01
61 55 9.998888653005455e-01
61 57 9.968544516729622e-01
62 4 4.827968857225671e-01
62 7 4.639257026534793e-01
62 8 9.896686597507748e-01
62 13 4.420261551932104e-01
63 19 4.966046542303693e-01
63 44 9.996799383883791e-01
63 60 9.934663597310158e-01
64 4 4.930861951669289e-01
64 7 9.974245421004649e-01
64 8 4.649879344917212e-01
64 13 9.975880127355259e-01
64 17 9.934467850048856e-01
64 62 4.556020818795551e-01
65 24 9.985488960661212e-01
65 35 9.995767452165771e-01
65 39 9.988523054035013e-01
65 43 9.973428174705203e-01
66 31 4.911363168584670e-01
66 47 4.856654140070268e-01
66 48 9.971194297927652e-01
66 52 4.632235275565255e-01
66 56 4.946480264326221e-01
67 1 9.853533526321105e-01
67 10 4.625437370319984e-01
67 30 4.600086683654172e-01
67 42 4.897496973105160e-01
67 45 9.899880892176233e-01
67 46 4.191656503812636e-01
68 5 9.988832984874295e-01
68 15 9.973270607676941e-01
68 22 9.963521219236708e-01
69 39 4.948146141019076e-01
69 45 9.861602595469101e-01
70 6 4.728185343615272e-01
70 36 9.850038244624899e-01
70 53 4.652725196507962e-01
71 3 9.817779875955962e-01
71 11 9.473509837504160e-01
72 31 9.895810226713794e-01
72 33 4.685928905791046e-01
72 38 4.701256159703128e-01
72 41 9.899904030873387e-01
72 48 4.727249540476792e-01
72 50 4.846211766638482e-01
72 66 4.730266482096489e-01
73 5 4.966241101733516e-01
73 15 9.949294239540791e-01
73 37 9.962103122170274e-01
73 57 4.955166378071775e-01
74 27 9.985538500240239e-01
74 48 9.937275308694786e-01
74 50 9.890130260269289e-01
74 51 9.923462613456673e-01
74 56 9.962229836564819e-01
75 11 4.639382511680258e-01
75 36 9.982769807066901e-01
75 40 4.515963868508693e-01
75 70 9.917257738207426e-01
76 19 4.948009835162808e-01
76 44 9.966802347613485e-01
76 63 9.984063288688431e-01
77 4 9.951289581095345e-01
77 7 9.993866571491420e-01
77 8 4.743353892265779e-01
77 13 4.950415233199041e-01
77 62 4.692422004926954e-01
77 64 9.965371597698450e-01
78 3 4.717824716954897e-01
78 18 4.883435762751148e-01
78 28 4.885868902889742e-01
78 71 9.829489833966263e-01
79 4 4.860448833089654e-01
79 7 4.934026226094143e-01
79 13 9.958980673977164e-01
79 17 9.972566483715365e-01
79 21 4.881110983323284e-01
79 27 9.907137770634583e-01
79 51 9.955076746774140e-01
79 64 9.958482918226120e-01
80 3 9.678878908857417e-01
80 11 4.659283636034571e-01
80 71 9.943069624812018e-01
80 78 9.962760716178518e-01
81 27 9.983426856458100e-01
81 48 9.968161913799972e-01
81 50 4.931103108914974e-01
81 51 9.942824992500824e-01
81 56 9.987043716138304e-01
81 66 4.942464792445595e-01
81 74 9.991445919862039e-01
82 2 4.979747286198121e-01
82 29 9.994082429892713e-01
82 37 9.980779135573127e-01
82 55 9.990222913979716e-01
82 57 9.992375612031760e-01
82 61 9.986028104666200e-01
83 6 9.871793722824833e-01
83 9 9.915341300834887e-01
83 12 4.791971134998810e-01
83 53 9.735988912440138e-01
83 58 9.924743454336522e-01
84 14 9.953964294847616e-01
84 34 4.826398394632671e-01
84 40 4.525188403294173e-01
84 49 9.875590087002375e-01
85 35 4.970264856975479e-01
85 39 9.963514658457485e-01
85 69 9.981708891912980e-01
86 2 9.997298358277005e-01
86 9 4.944432065020586e-01
86 18 4.904451237344546e-01
86 28 4.917382251823864e-01
86 29 4.982677327250437e-01
86 55 4.984858475361065e-01
86 58 4.931919175007616e-01
86 61 4.982030438543731e-01
86 82 4.969215983193946e-01
86 83 4.809335151939139e-01
87 4 4.878010169622856e-01
87 8 4.615241676998405e-01
87 13 9.928161003524948e-01
87 17 9.938808777542246e-01
87 27 9.921352881455643e-01
87 51 9.977110002363156e-01
87 56 4.950929671730758e-01
87 62 4.458155263891176e-01
87 64 9.950657075198575e-01
87 77 4.928441556808859e-01
87 79 9.993276581590964e-01
88 29 4.975196659622991e-01
88 37 9.996418306558686e-01
88 57 9.969544330061849e-01
88 73 9.981089146581736e-01
88 82 9.961706738902610e-01
89 1 9.932426606542065e-01
89 5 4.968541136889900e-01
89 12 4.815655390864688e-01
89 15 4.965123464749896e-01
89 22 9.974656870127336e-01
89 42 9.979823359035507e-01
89 45 4.956929859299924e-01
89 67 4.884044766758677e-01
90 40 4.284171921945698e-01
90 53 9.468889209242639e-01
90 70 4.327899535859349e-01
90 83 4.280104924955530e-01
91 31 4.950582418234131e-01
91 41 4.812461182445748e-01
91 48 9.975531175181788e-01
91 50 9.934615551796662e-01
91 66 9.943488658660726e-01
91 72 4.825261573362750e-01
91 74 9.905264573754561e-01
91 81 9.923546838969963e-01
92 38 4.542943415941513e-01
92 40 9.883565842146927e-01
92 70 4.470407703948100e-01
92 75 4.543861448916811e-01
92 90 9.219629423191591e-01
93 5 9.995992810637667e-01
93 15 9.987026750090432e-01
93 22 9.987367040392467e-01
93 42 4.974341174392433e-01
93 68 9.993732310593961e-01
93 89 9.956463364317070e-01
94 18 9.994536966060134e-01
94 28 9.994986877132468e-01
94 55 4.888238032428025e-01
94 61 4.900778196563774e-01
94 78 9.826968639987841e-01
94 80 4.821882283153219e-01
95 1 4.725222933985750e-01
95 12 9.894826639490941e-01
95 46 4.265365364777278e-01
95 53 9.531198562913510e-01
95 83 4.715709942128890e-01
95 90 4.520430825425298e-01
96 36 9.881488530642859e-01
96 40 4.689828641961672e-01
96 70 9.563127309912737e-01
96 75 9.852476773127266e-01
96 84 9.654592299222648e-01
96 92 4.609719072752758e-01
97 7 4.955346841393287e-01
97 13 9.961182608346092e-01
97 17 4.957247359393122e-01
97 44 4.966598186611548e-01
97 63 9.953512481371153e-01
97 76 9.981680042169735e-01
97 77 4.929402449608163e-01
98 1 4.136511378189226e-01
98 10 9.359763574422950e-01
98 30 9.416719275331917e-01
98 46 9.323864341605249e-01
98 67 4.434087424613986e-01
99 1 9.819727061785304e-01
99 12 9.692051639915961e-01
99 45 4.783828384076682e-01
99 46 4.541097602368909e-01
99 67 9.837422861414286e-01
99 89 4.779349681655438e-01
99 95 4.708440613649686e-01
99 98 4.527794455263656e-01
100 6 9.854929908925208e-01
100 9 9.944737185000658e-01
100 12 4.795074016758151e-01
100 53 9.668673915837119e-01
100 58 9.943961234065840e-01
100 83 9.995885549857580e-01
100 86 4.840438862290382e-01
100 95 4.699758870617231e-01
101 25 4.664145761960306e-01
101 31 4.856562049583158e-01
101 33 4.635346854334357e-01
101 47 9.934235807168538e-01
101 48 4.898475071903281e-01
101 52 4.825372407118753e-01
101 66 9.919854271042770e-01
101 91 4.877611753916443e-01
102 20 9.108572425681669e-01
102 25 4.093446895617895e-01
102 52 3.848400595588659e-01
102 54 4.423769268798605e-01
102 59 9.655148518369085e-01
103 11 9.613680699302273e-01
103 36 9.962868876762100e-01
103 70 9.682996482504486e-01
103 75 9.895778303404343e-01
103 84 4.713562638374938e-01
103 96 9.877192817839843e-01
104 14 9.766833761786791e-01
104 36 9.683812100219756e-01
104 40 4.635166768195512e-01
104 75 9.599024827717779e-01
104 84 9.896469026300262e-01
104 92 4.471822079842318e-01
104 96 9.926050935156143e-01
104 103 9.769389281109510e-01
105 10 4.688470847983751e-01
105 24 9.957747997453684e-01
105 30 4.647113714170283e-01
105 35 9.989712202339177e-01
105 39 9.968569928750830e-01
105 43 9.966882603443937e-01
105 65 9.978839171035029e-01
106 19 9.968014430102770e-01
106 44 9.980423790460541e-01
106 60 4.956497738654765e-01
106 63 9.985691221816321e-01
106 76 9.979158164927228e-01
106 97 9.980872559049622e-01
107 1 4.811175624486454e-01
107 10 9.579248654673422e-01
107 30 4.773631594788397e-01
107 45 4.865268158715465e-01
107 46 4.281826405338813e-01
107 67 9.938474200987499e-01
107 98 4.626909233988826e-01
107 99 9.771311577126558e-01
108 47 4.860270673383031e-01
108 48 9.965006744774667e-01
108 52 4.646282265422033e-01
108 56 9.914776285255379e-01
108 66 9.993578540383156e-01
108 81 9.890931882290752e-01
108 91 9.912479308021904e-01
108 101 9.917876989849539e-01
109 3 9.924533962856064e-01
109 11 9.676447885548071e-01
109 71 9.972643553757143e-01
109 78 4.876204345549670e-01
109 80 9.905853978519572e-01
110 6 9.819797523187832e-01
110 36 9.494228088204152e-01
110 58 4.753082592166955e-01
110 70 9.814743487231690e-01
110 75 9.557473350586894e-01
110 83 4.704848858738443e-01
111 14 4.800695857815293e-01
111 21 9.774452480996154e-01
111 38 9.684518133760246e-01
111 40 4.569386142038289e-01
111 41 4.778108118964930e-01
111 49 9.817491449706420e-01
111 50 4.860050385832388e-01
111 84 9.705858236053191e-01
112 10 4.704207792487948e-01
112 24 4.935461731653766e-01
112 30 4.664764280460229e-01
112 35 9.955403679836723e-01
112 39 9.940958533158916e-01
112 43 4.942918914486579e-01
112 65 9.924702284435767e-01
112 69 4.945698298528559e-01
112 85 9.947153658852352e-01
112 105 9.975177320075692e-01
112 107 4.806066416348951e-01
113 2 9.994138206337104e-01
113 9 4.924471969822095e-01
113 18 4.925882896473440e-01
113 28 4.935728125217766e-01
113 29 4.983335357579675e-01
113 55 9.980036371695057e-01
113 61 9.978023253334874e-01
113 82 4.973520975123629e-01
113 86 9.996613916378124e-01
113 94 4.908341688545027e-01
114 3 9.855162255525203e-01
114 11 9.530200084443147e-01
114 71 9.995074320869736e-01
114 78 9.767954621967960e-01
114 80 9.907070256671154e-01
114 109 9.978682588705984e-01
115 31 9.970988389055294e-01
115 33 4.633818319571361e-01
115 41 4.812542943860229e-01
115 47 4.802078772233281e-01
115 48 9.908884734417431e-01
115 50 9.844495100993278e-01
115 66 9.936428180667477e-01
115 72 4.879814139125678e-01
115 91 9.959680426202087e-01
115 101 9.840149791766183e-01
115 108 9.889940439188251e-01
116 22 4.920098028477825e-01
116 42 4.943715795730964e-01
116 45 9.943428890183584e-01
116 69 9.980361298362813e-01
116 85 9.946986143468777e-01
116 107 4.799733602154641e-01
116 112 4.943903207712002e-01
117 6 9.967783480148686e-01
117 9 9.898110880263948e-01
117 53 9.726797302479725e-01
117 58 9.942904910189435e-01
117 83 9.967777342647650e-01
117 90 4.262224422355747e-01
117 95 4.596043074371963e-01
117 100 9.956771867300708e-01
117 110 9.644317709489357e-01
118 14 9.955274337988751e-01
118 21 4.861215372853760e-01
118 34 4.818922658353560e-01
118 38 4.585921406863313e-01
118 49 9.918700002689895e-01
118 84 9.994185491387559e-01
118 96 4.786895566078191e-01
118 104 9.846933108708643e-01
118 111 9.771920574867553e-01
119 20 9.346641960329762e-01
119 25 9.960760649560096e-01
119 32 4.244415350222299e-01
119 47 4.726436944954298e-01
119 52 9.830872507855244e-01
119 54 9.743490828829474e-01
119 59 9.280937785748857e-01
119 102 4.307813584926128e-01
120 5 9.982689126080359e-01
120 15 9.966508684222912e-01
120 22 4.972230234273077e-01
120 68 9.996587111122835e-01
120 73 4.952385913313050e-01
120 93 9.983302166795570e-01
121 16 9.968342441071181e-01
121 23 9.977444603911590e-01
121 26 9.934501931761778e-01
121 34 9.885909078348486e-01
121 44 4.788840482310440e-01
121 60 4.855695018892502e-01
122 24 9.955114856182370e-01
122 35 9.998561411097083e-01
122 39 9.994169622659703e-01
122 43 4.974127235607221e-01
122 65 9.989745430765601e-01
122 69 4.940733060444187e-01
122 85 9.955912705712924e-01
122 105 9.989428748084193e-01
122 112 9.966895649600958e-01
123 1 9.932456354405927e-01
123 5 4.968523741759551e-01
123 12 4.815651421506523e-01
123 15 4.965110306519791e-01
123 22 9.974645149047728e-01
123 42 9.979836638662507e-01
123 45 4.956955938100083e-01
123 67 4.884095424014842e-01
123 89 9.999999988427378e-01
123 93 9.956428023410960e-01
123 99 4.779400839281561e-01
124 2 9.963846844167676e-01
124 29 9.992816711516685e-01
124 37 9.970596523550034e-01
124 55 9.995043567715723e-01
124 57 9.989618080748031e-01
124 61 9.992724419018255e-01
124 82 9.998831228126750e-01
124 86 4.972777150399039e-01
124 113 4.978250079328066e-01
125 35 4.948654517002185e-01
125 39 4.965821888684082e-01
125 69 9.996202293535016e-01
125 85 9.993786702645312e-01
125 112 9.912890659738623e-01
125 116 9.965204203098966e-01
125 122 4.958642034793999e-01
126 29 9.973884639173474e-01
126 37 4.978236992684756e-01
126 68 9.956067984175012e-01
126 82 4.976912940664041e-01
126 88 9.954619548350468e-01
126 120 9.977075188080016e-01
127 20 8.727823467119842e-01
127 25 4.471954973984926e-01
127 52 4.366010068213414e-01
127 54 8.895138574561710e-01
127 59 9.983895074816231e-01
127 102 9.505197806501090e-01
127 119 9.271504382011324e-01
128 7 4.952570055912300e-01
128 13 9.997357283612640e-01
128 17 9.989551887484152e-01
128 19 9.934109141863356e-01
128 21 4.885140121952743e-01
128 64 9.958196235105439e-01
128 77 4.933145211639555e-01
128 79 9.955280846531145e-01
128 87 4.959223250877755e-01
128 97 9.961118274317172e-01
128 106 9.939884124393814e-01
129 16 4.916445757426917e-01
129 19 9.937134480063405e-01
129 23 4.856868608102410e-01
129 26 9.900854602953137e-01
129 34 4.901350160252791e-01
129 44 9.981448251044776e-01
129 60 9.995717324128405e-01
129 63 9.962909911254472e-01
129 76 4.949526584371609e-01
129 106 4.969803658046661e-01
129 121 4.844779898251329e-01
130 19 4.960139486996608e-01
130 44 9.992690458468804e-01
130 60 4.959589801237966e-01
130 63 9.999108965752744e-01
130 76 9.989888747054045e-01
130 97 9.958506058325978e-01
130 106 9.983714217932718e-01
130 129 9.951264296826082e-01
131 5 4.973381618928617e-01
131 29 4.976873847070752e-01
131 37 9.988541871010950e-01
131 68 4.968676348117154e-01
131 73 9.975510534201150e-01
131 82 4.977231698596692e-01
131 88 9.994881366127665e-01
131 120 9.957610988221998e-01
131 126 9.975551704214115e-01
132 3 4.723575443455670e-01
132 28 4.876742667739056e-01
132 71 9.842888677518461e-01
132 78 9.999447841553456e-01
132 80 9.966521725645752e-01
132 94 9.811818401176409e-01
132 109 9.762933149988992e-01
132 114 9.783361633683090e-01
