%%MatrixMarket matrix coordinate real symmetric
%
132 132 1294
5 1 4.871444456070723e-01
6 2 4.773664348759530e-01
7 4 9.911517587789733e-01
8 4 9.746993466187978e-01
8 7 4.687176042505588e-01
9 2 9.874532232257340e-01
9 6 9.821439759453695e-01
11 3 9.902095488087582e-01
12 1 9.816765447264215e-01
12 9 4.694742149297955e-01
13 4 4.865422901546930e-01
13 7 9.933099115655302e-01
13 8 4.517559123753067e-01
15 1 4.864305470039536e-01
15 5 9.996611160859774e-01
16 14 9.665289108977136e-01
17 4 4.806508915167753e-01
17 7 9.849330915537401e-01
17 13 9.981186454724930e-01
18 2 4.895083096588044e-01
19 7 4.856790981202394e-01
19 13 9.907129013431673e-01
19 14 4.802920410843289e-01
19 16 4.799476687793598e-01
19 17 9.933955339043391e-01
20 8 3.389945335419645e-01
21 13 4.862385557394246e-01
21 14 9.738877882169455e-01
21 17 9.844057777173848e-01
21 19 9.864830729179619e-01
22 1 9.827277174256717e-01
22 5 9.986574910264876e-01
22 12 4.718270151579992e-01
22 15 9.988163757913360e-01
23 3 4.346345860488767e-01
23 11 4.589233265472828e-01
23 14 9.651311880082118e-01
23 16 9.982309263027047e-01
23 19 4.720130672175556e-01
24 10 9.192988860859841e-01
25 8 4.399752441624413e-01
25 20 9.184570277149352e-01
26 14 9.678152282924481e-01
26 16 9.990928856307344e-01
26 19 4.851599894530659e-01
26 23 9.948628531875172e-01
27 13 4.876926826560881e-01
27 17 9.836614470691091e-01
27 21 9.777140602315690e-01
28 2 4.905920105310594e-01
28 3 4.334352520589122e-01
28 6 4.708267906579726e-01
28 18 9.995524384774794e-01
29 2 9.981658256192536e-01
29 5 4.918904276210082e-01
29 6 4.681038033146585e-01
29 9 4.896474967921227e-01
29 18 4.872679091252672e-01
29 28 4.876522904695241e-01
30 10 9.997140675990450e-01
30 24 4.550945972566764e-01
31 25 4.258045921484417e-01
31 27 4.749573626174168e-01
32 20 8.931657755064205e-01
32 25 8.680619906834242e-01
32 31 3.860464894839557e-01
33 20 4.041996140759371e-01
33 25 9.111156766597743e-01
33 31 9.374600447701995e-01
33 32 9.370735529545163e-01
34 11 4.516679807672547e-01
34 14 9.843616149272796e-01
34 16 9.962165923073499e-01
34 19 4.810307289520268e-01
34 23 9.957800791492333e-01
34 26 9.951779023066335e-01
35 10 4.608224205795052e-01
35 24 9.969652682169816e-01
35 30 4.562625169618723e-01
36 3 9.071637473006875e-01
36 6 4.424687003154328e-01
36 11 9.444987416301117e-01
36 14 4.525788800109959e-01
36 34 4.395214436272964e-01
37 2 9.903725067746491e-01
37 5 9.886493633136251e-01
37 15 9.887867198481940e-01
37 18 4.804002505559424e-01
37 28 4.800269180078840e-01
37 29 9.968803318042624e-01
38 21 4.489530065045736e-01
38 31 4.566627956894652e-01
39 10 4.544709009689648e-01
39 15 4.707059721540331e-01
39 24 9.948599259482336e-01
39 30 4.496272003938083e-01
39 35 9.993097626414468e-01
40 14 4.316134928906949e-01
40 36 8.935050605436045e-01
40 38 9.585165646416756e-01
41 21 4.508836120795956e-01
41 27 4.609897799391723e-01
41 31 9.763932983226565e-01
41 32 3.475858280418204e-01
41 33 4.408170769939773e-01
41 38 9.772883900681745e-01
41 40 4.400585360465346e-01
42 1 9.873750671087499e-01
42 5 9.945680034916277e-01
42 12 4.729066673307640e-01
42 15 9.954581503738229e-01
42 22 9.985973822481776e-01
42 24 4.555337476786825e-01
42 35 4.696806241971773e-01
42 39 4.726602290194190e-01
43 10 9.322952081762884e-01
43 24 9.993311551469291e-01
43 30 9.238641937149327e-01
43 35 9.962291681318259e-01
43 39 9.929332239701496e-01
44 7 4.847155085744174e-01
44 13 9.831317542664036e-01
44 14 4.736283744762607e-01
44 16 9.729835629229011e-01
44 17 4.904357406326791e-01
44 19 9.942406727162765e-01
44 23 4.789794122843589e-01
44 26 9.818080174373363e-01
44 34 4.834675126168517e-01
45 1 9.843151975561488e-01
45 5 9.834738261520597e-01
45 10 4.475532838560117e-01
45 15 9.860761392455036e-01
45 22 9.910725445972142e-01
45 24 4.656332252747330e-01
45 30 4.436129688140482e-01
45 35 4.779870485121263e-01
45 39 4.795734778134097e-01
45 42 9.965430623434023e-01
45 43 4.659112394512465e-01
46 1 4.118484800541743e-01
46 10 3.942148798486801e-01
46 12 4.222110031664052e-01
46 22 3.620908942185548e-01
46 30 3.969322137071378e-01
46 42 3.737684215545207e-01
46 45 3.834013126350856e-01
47 8 9.211411149284253e-01
47 20 4.018775888091871e-01
47 25 9.671938741368522e-01
47 31 9.456648264123837e-01
47 32 4.088601066581193e-01
47 33 9.337455685636109e-01
48 17 4.759746896908332e-01
48 27 9.907793603351899e-01
48 31 9.798251009167069e-01
48 33 4.376945462023673e-01
48 41 4.712038991380684e-01
48 47 4.755993078041487e-01
49 14 9.919165964643269e-01
49 16 4.731680130087354e-01
49 17 4.812904131999287e-01
49 19 9.753112342679694e-01
49 21 9.938557020974432e-01
49 23 4.692277397346840e-01
49 26 9.526509076588705e-01
49 34 9.655267556474146e-01
49 38 4.540106011144940e-01
49 40 4.311586092403715e-01
49 44 4.772041616374433e-01
50 21 4.786360611096700e-01
50 27 9.797206758916861e-01
50 31 9.835345954231873e-01
50 38 4.726096224758172e-01
50 41 9.800572549521852e-01
50 48 9.864337436229857e-01
51 4 4.829683560846789e-01
51 7 4.866135118671585e-01
51 8 4.597119748276479e-01
51 13 9.830364539951471e-01
51 17 9.869494932353058e-01
51 27 9.972732668579876e-01
51 47 4.591378218631663e-01
51 48 9.865302548507161e-01
51 50 4.820435585450413e-01
52 8 9.193564750136543e-01
52 20 4.342232126194461e-01
52 25 9.929825799759521e-01
52 31 4.451740665495548e-01
52 32 4.169173114551315e-01
52 33 9.133283941529210e-01
52 47 9.883551692322500e-01
52 48 4.488700875493788e-01
53 1 4.383189050778640e-01
53 6 9.648042223890337e-01
53 9 4.688317862656290e-01
53 12 9.365813148307880e-01
54 8 3.784718046870719e-01
54 20 9.882059200086499e-01
54 25 9.665612303825507e-01
54 32 9.101428291837131e-01
54 33 8.695525392127456e-01
54 47 4.397043175774993e-01
54 52 9.306031421139808e-01
55 2 9.980752006970967e-01
55 6 4.683289442106409e-01
55 9 4.879820839879112e-01
55 18 9.829128767000551e-01
55 28 9.832619113100253e-01
55 29 9.991102066990390e-01
55 37 9.944112639851148e-01
56 4 4.754330459439878e-01
56 8 4.555180342776914e-01
56 13 4.838308251014468e-01
56 17 4.872640191999282e-01
56 27 9.976881554626437e-01
56 31 4.790354861822237e-01
56 41 4.593013842866293e-01
56 47 4.679941533381073e-01
56 48 9.957816619775393e-01
56 50 9.770500220709575e-01
56 51 9.973574393403244e-01
56 52 4.409943792763560e-01
57 2 9.917303604698190e-01
57 5 4.899558438737265e-01
57 18 4.862512913048948e-01
57 28 4.855891061755918e-01
57 29 9.973604347370220e-01
57 37 9.986368979263481e-01
57 55 9.970839668285428e-01
58 2 9.838225381130737e-01
58 6 9.900370817050049e-01
58 9 9.987390559507646e-01
58 29 4.864975082481286e-01
58 53 4.724095571624164e-01
58 55 4.855401935885560e-01
59 4 3.423085737460341e-01
59 8 4.060929765863401e-01
59 20 8.918307887752630e-01
59 25 8.941439502812112e-01
59 32 3.373596716520980e-01
59 33 3.340942614115517e-01
59 47 3.965532945273660e-01
59 52 4.337330771418969e-01
59 54 9.020007126574365e-01
60 14 4.852306651221637e-01
60 16 9.857208649895957e-01
60 17 4.867846370506050e-01
60 19 9.931635613192789e-01
60 21 9.722952419549361e-01
60 23 9.750781793036785e-01
60 26 9.917842098684757e-01
60 34 9.847427201336213e-01
60 44 9.960284798608043e-01
60 49 4.854665974718761e-01
61 2 9.974057484726618e-01
61 9 4.868403689110213e-01
61 18 9.852305506888566e-01
61 28 9.853263213801849e-01
61 29 9.983929628135817e-01
61 37 9.934292695136867e-01
61 55 9.998888653005455e-01
61 57 9.968544516729622e-01
61 58 4.845715718415388e-01
62 4 9.655937714451343e-01
62 7 4.639257026534793e-01
62 8 9.896686597507748e-01
62 13 4.420261551932104e-01
62 51 4.400488428472251e-01
62 52 4.315605623687099e-01
62 56 4.318079699173283e-01
62 59 3.969286111491550e-01
63 7 9.743078755275871e-01
63 13 9.852472041503015e-01
63 16 9.678690696327796e-01
63 17 9.817184149892307e-01
63 19 9.932093084607386e-01
63 23 4.758133765920224e-01
63 26 9.774761585957938e-01
63 34 4.802430493611443e-01
63 44 9.996799383883791e-01
63 60 9.934663597310158e-01
64 4 9.861723903338577e-01
64 7 9.974245421004649e-01
64 8 4.649879344917212e-01
64 13 9.975880127355259e-01
64 17 9.934467850048856e-01
64 19 9.789861155898505e-01
64 27 4.876711774751638e-01
64 44 4.852196544028670e-01
64 51 9.863430632516077e-01
64 56 4.860437264371938e-01
64 62 4.556020818795551e-01
64 63 4.870474889266664e-01
65 10 4.582005577177380e-01
65 15 4.625138593258545e-01
65 24 9.985488960661212e-01
65 30 4.535182171001330e-01
65 35 9.995767452165771e-01
65 39 9.988523054035013e-01
65 42 4.653335252379616e-01
65 43 9.973428174705203e-01
65 45 4.738613838994082e-01
66 8 4.521932684068239e-01
66 20 3.341659958667283e-01
66 25 4.413629340883966e-01
66 27 9.792777299663535e-01
66 31 9.822726337169340e-01
66 32 3.644675816606571e-01
66 33 4.501132737757100e-01
66 41 4.664519175990683e-01
66 47 9.713308280140536e-01
66 48 9.971194297927652e-01
66 50 9.760258739410520e-01
66 51 9.771996282599419e-01
66 52 4.632235275565255e-01
66 54 3.791209943189037e-01
66 56 9.892960528652442e-01
67 1 9.853533526321105e-01
67 5 4.769219537634833e-01
67 10 4.625437370319984e-01
67 12 4.713591939044532e-01
67 15 4.782234586724296e-01
67 22 4.839312982193005e-01
67 30 4.600086683654172e-01
67 35 4.669492163844247e-01
67 42 9.794993946210321e-01
67 45 9.899880892176233e-01
67 46 4.191656503812636e-01
68 1 4.869152846068950e-01
68 5 9.988832984874295e-01
68 9 4.901925267600674e-01
68 12 4.716603301432654e-01
68 15 9.973270607676941e-01
68 22 9.963521219236708e-01
68 29 9.863881511127284e-01
68 37 9.876099250290548e-01
68 42 9.906850801975035e-01
68 45 4.881301661222140e-01
68 53 4.387222042575313e-01
68 58 4.847965097955429e-01
69 5 4.869537873323909e-01
69 15 4.897000570552320e-01
69 22 4.889220489807856e-01
69 24 4.852202414663707e-01
69 35 9.856986193150369e-01
69 39 9.896292282038152e-01
69 42 9.810700057192285e-01
69 43 4.838463994091056e-01
69 45 9.861602595469101e-01
69 65 9.819030507698594e-01
69 67 4.799787465001898e-01
70 3 8.859237782712530e-01
70 6 9.456370687230544e-01
70 11 9.113875529734216e-01
70 36 9.850038244624899e-01
70 40 4.358335710449995e-01
70 53 9.305450393015924e-01
70 58 4.465267541786270e-01
71 3 9.817779875955962e-01
71 6 4.265681910279434e-01
71 11 9.473509837504160e-01
71 18 4.610680456729336e-01
71 28 4.616210083862948e-01
72 31 9.895810226713794e-01
72 32 3.881359969733773e-01
72 33 9.371857811582092e-01
72 38 9.402512319406255e-01
72 41 9.899904030873387e-01
72 48 4.727249540476792e-01
72 50 9.692423533276964e-01
72 56 4.576262631711280e-01
72 66 4.730266482096489e-01
73 5 9.932482203467032e-01
73 15 9.949294239540791e-01
73 22 9.892677697197896e-01
73 24 4.593390606028844e-01
73 29 9.872635016683806e-01
73 35 4.712255098938307e-01
73 37 9.962103122170274e-01
73 39 4.762721631842072e-01
73 42 9.835716733526346e-01
73 57 9.910332756143549e-01
73 65 4.687161967091929e-01
73 68 9.890473520906835e-01
73 69 4.915012044843626e-01
74 17 4.872045685886897e-01
74 21 9.758660177700793e-01
74 27 9.985538500240239e-01
74 31 4.813909090142064e-01
74 38 4.496740777274141e-01
74 41 4.704046534968749e-01
74 48 9.937275308694786e-01
74 50 9.890130260269289e-01
74 51 9.923462613456673e-01
74 56 9.962229836564819e-01
74 66 9.825669982653785e-01
74 72 4.645631255717435e-01
75 3 8.906978459509497e-01
75 6 4.496739856968618e-01
75 11 9.278765023360517e-01
75 14 4.434410303759823e-01
75 36 9.982769807066901e-01
75 40 9.031927737017386e-01
75 53 8.845007079805238e-01
75 70 9.917257738207426e-01
76 4 4.765308507537666e-01
76 7 9.840656352502614e-01
76 13 9.890627454067570e-01
76 16 4.766899779230446e-01
76 17 9.830406293045020e-01
76 19 9.896019670325615e-01
76 26 4.824380813196988e-01
76 44 9.966802347613485e-01
76 60 9.856083512585948e-01
76 62 4.309284782350112e-01
76 63 9.984063288688431e-01
76 64 9.815927779715719e-01
77 4 9.951289581095345e-01
77 7 9.993866571491420e-01
77 8 4.743353892265779e-01
77 13 9.900830466398082e-01
77 17 4.905332215419034e-01
77 19 4.818662469635047e-01
77 51 9.741577696648874e-01
77 62 4.692422004926954e-01
77 63 4.829818775593890e-01
77 64 9.965371597698450e-01
77 76 9.773406949933090e-01
78 2 4.606772770346608e-01
78 3 9.435649433909794e-01
78 18 9.766871525502296e-01
78 28 9.771737805779485e-01
78 55 4.618102821941697e-01
78 61 4.639846716696855e-01
78 71 9.829489833966263e-01
79 4 4.860448833089654e-01
79 7 9.868052452188286e-01
79 8 4.561916927901364e-01
79 13 9.958980673977164e-01
79 17 9.972566483715365e-01
79 19 9.822527923426967e-01
79 21 4.881110983323284e-01
79 27 9.907137770634583e-01
79 48 4.837996834210140e-01
79 51 9.955076746774140e-01
79 56 9.863553362121340e-01
79 62 4.413421754736623e-01
79 64 9.958482918226120e-01
79 66 4.765920606903052e-01
79 74 9.822333096041905e-01
79 76 4.859888155647464e-01
79 77 9.854320453716314e-01
80 3 9.678878908857417e-01
80 6 4.476101116041726e-01
80 11 9.318567272069141e-01
80 18 4.778768548162516e-01
80 28 4.786461823533684e-01
80 61 4.483078687386974e-01
80 71 9.943069624812018e-01
80 78 9.962760716178518e-01
81 17 4.859644902724536e-01
81 21 4.837965911525496e-01
81 27 9.983426856458100e-01
81 31 9.655413331580408e-01
81 41 4.677194342259940e-01
81 47 4.640706755360537e-01
81 48 9.968161913799972e-01
81 50 9.862206217829949e-01
81 51 9.942824992500824e-01
81 56 9.987043716138304e-01
81 66 9.884929584891190e-01
81 72 4.644222255984255e-01
81 74 9.991445919862039e-01
81 79 9.823596663527597e-01
82 2 9.959494572396242e-01
82 18 4.876872939305457e-01
82 28 4.875697816901175e-01
82 29 9.994082429892713e-01
82 37 9.980779135573127e-01
82 55 9.990222913979716e-01
82 57 9.992375612031760e-01
82 61 9.986028104666200e-01
82 68 9.830597867918262e-01
82 73 9.889693600786723e-01
83 2 4.795133337686907e-01
83 6 9.871793722824833e-01
83 9 9.915341300834887e-01
83 12 9.583942269997621e-01
83 29 4.729396823661663e-01
83 53 9.735988912440138e-01
83 58 9.924743454336522e-01
83 68 4.795974806861592e-01
83 70 4.489140945761458e-01
84 14 9.953964294847616e-01
84 16 4.699903784313291e-01
84 19 4.683821831159134e-01
84 21 4.822592113302090e-01
84 23 9.407391333204335e-01
84 26 4.702678896864035e-01
84 34 9.652796789265342e-01
84 36 4.626877722568908e-01
84 38 4.552869243815935e-01
84 40 4.525188403294173e-01
84 49 9.875590087002375e-01
84 60 4.722520825122340e-01
84 75 4.558920476469254e-01
85 10 4.515080497348126e-01
85 15 4.828088767756673e-01
85 24 9.830529269235628e-01
85 30 4.466837112188417e-01
85 35 9.940529713950957e-01
85 39 9.963514658457485e-01
85 42 4.846044306386322e-01
85 43 9.810095876010401e-01
85 45 9.785466021733912e-01
85 65 9.914341952363454e-01
85 69 9.981708891912980e-01
85 73 4.857684674879428e-01
86 2 9.997298358277005e-01
86 6 4.801694597969775e-01
86 9 9.888864130041172e-01
86 18 4.904451237344546e-01
86 28 4.917382251823864e-01
86 29 9.965354654500874e-01
86 37 4.934721328526054e-01
86 53 4.407904843431301e-01
86 55 9.969716950722129e-01
86 57 9.889099857103323e-01
86 58 9.863838350015232e-01
86 61 9.964060877087463e-01
86 71 4.254661683170363e-01
86 78 4.636026859631137e-01
86 80 4.494987973965535e-01
86 82 9.938431966387892e-01
86 83 4.809335151939139e-01
87 4 9.756020339245712e-01
87 7 9.858178011657281e-01
87 8 4.615241676998405e-01
87 13 9.928161003524948e-01
87 17 9.938808777542246e-01
87 19 4.874018437032336e-01
87 21 4.850691571675746e-01
87 27 9.921352881455643e-01
87 48 4.866795289389446e-01
87 51 9.977110002363156e-01
87 56 9.901859343461517e-01
87 62 4.458155263891176e-01
87 64 9.950657075198575e-01
87 66 4.807588208067232e-01
87 74 9.840292408023454e-01
87 77 9.856883113617718e-01
87 79 9.993276581590964e-01
87 81 9.854713463863648e-01
88 2 4.938175700711642e-01
88 5 9.915323991037042e-01
88 15 9.920059974029595e-01
88 22 4.923857642223990e-01
88 29 9.950393319245981e-01
88 37 9.996418306558686e-01
88 55 9.914994843624468e-01
88 57 9.969544330061849e-01
88 61 9.901835117329799e-01
88 68 9.897434784854950e-01
88 73 9.981089146581736e-01
88 82 9.961706738902610e-01
88 86 4.918774681171880e-01
89 1 9.932426606542065e-01
89 5 9.937082273779800e-01
89 12 4.815655390864688e-01
89 15 9.930246929499792e-01
89 22 9.974656870127336e-01
89 42 9.979823359035507e-01
89 45 9.913859718599849e-01
89 46 3.810583918123013e-01
89 67 9.768089533517355e-01
89 68 9.925390840132945e-01
89 73 4.882537661262302e-01
90 6 4.209624613953755e-01
90 12 4.236623440941665e-01
90 36 4.028868763597688e-01
90 40 8.568343843891395e-01
90 53 9.468889209242639e-01
90 58 4.002066132482005e-01
90 70 4.327899535859349e-01
90 75 4.178900358261175e-01
90 83 4.280104924955530e-01
91 27 9.839207619861564e-01
91 31 9.901164836468263e-01
91 32 3.533764974709588e-01
91 33 4.456363986290784e-01
91 38 4.531331474722056e-01
91 41 9.624922364891496e-01
91 47 4.724431683224141e-01
91 48 9.975531175181788e-01
91 50 9.934615551796662e-01
91 51 9.749267820445054e-01
91 52 4.436076080591681e-01
91 56 9.881274816233863e-01
91 66 9.943488658660726e-01
91 72 9.650523146725499e-01
91 74 9.905264573754561e-01
91 81 9.923546838969963e-01
91 87 4.791089694085759e-01
92 36 8.924285789821943e-01
92 38 9.085886831883025e-01
92 40 9.883565842146927e-01
92 41 4.046677476571739e-01
92 53 4.239032115453912e-01
92 70 8.940815407896201e-01
92 75 9.087722897833622e-01
92 84 4.271786182296423e-01
92 90 9.219629423191591e-01
93 1 4.894246370410901e-01
93 5 9.995992810637667e-01
93 9 4.867767103098574e-01
93 12 4.726043178336499e-01
93 15 9.987026750090432e-01
93 22 9.987367040392467e-01
93 29 4.907458729553375e-01
93 37 4.925648760040701e-01
93 42 9.948682348784866e-01
93 45 9.832484950399030e-01
93 67 4.780315757411016e-01
93 68 9.993732310593961e-01
93 73 9.896091880653144e-01
93 83 4.760437857637788e-01
93 88 9.881541432446320e-01
93 89 9.956463364317070e-01
94 2 4.873547607744937e-01
94 3 4.383693736015065e-01
94 18 9.994536966060134e-01
94 28 9.994986877132468e-01
94 29 4.842229215111454e-01
94 37 4.761775409326376e-01
94 55 4.888238032428025e-01
94 57 4.824913298518637e-01
94 61 4.900778196563774e-01
94 71 4.665380148637314e-01
94 78 9.826968639987841e-01
94 80 9.643764566306439e-01
94 82 4.843671143873223e-01
94 86 4.886596825313675e-01
95 1 4.725222933985750e-01
95 9 4.534822630137379e-01
95 12 9.894826639490941e-01
95 46 4.265365364777278e-01
95 53 9.531198562913510e-01
95 58 4.503880936346474e-01
95 67 4.465091469938296e-01
95 68 4.468659715900365e-01
95 83 4.715709942128890e-01
95 89 4.581503038457129e-01
95 90 9.040861650850596e-01
95 93 4.471056389184113e-01
96 11 9.104135806577009e-01
96 14 4.722809052331752e-01
96 34 4.528095659171238e-01
96 36 9.881488530642859e-01
96 40 9.379657283923344e-01
96 49 4.572525225327916e-01
96 70 9.563127309912737e-01
96 75 9.852476773127266e-01
96 84 9.654592299222648e-01
96 90 3.977943325507640e-01
96 92 9.219438145505516e-01
97 4 4.824570123701150e-01
97 7 9.910693682786573e-01
97 13 9.961182608346092e-01
97 16 4.703395016118933e-01
97 17 9.914494718786243e-01
97 19 9.919973255210204e-01
97 26 4.769508789653441e-01
97 44 9.933196373223095e-01
97 60 9.814088840951244e-01
97 62 4.377617565492987e-01
97 63 9.953512481371153e-01
97 64 9.910111603600614e-01
97 76 9.981680042169735e-01
97 77 9.858804899216326e-01
97 79 9.841537244455193e-01
97 87 4.893185008862613e-01
98 1 4.136511378189226e-01
98 10 9.359763574422950e-01
98 12 3.946437438403679e-01
98 30 9.416719275331917e-01
98 42 3.930818633040577e-01
98 45 4.110116052592407e-01
98 46 9.323864341605249e-01
98 67 4.434087424613986e-01
98 89 3.913322951165461e-01
99 1 9.819727061785304e-01
99 5 4.592939936900703e-01
99 12 9.692051639915961e-01
99 15 4.590141091852751e-01
99 22 4.677789357395526e-01
99 42 4.744067795046878e-01
99 45 4.783828384076682e-01
99 46 4.541097602368909e-01
99 67 9.837422861414286e-01
99 68 4.578391026830395e-01
99 89 4.779349681655438e-01
99 93 4.627221558288717e-01
99 95 9.416881227299372e-01
99 98 4.527794455263656e-01
100 2 4.828797849174681e-01
100 6 9.854929908925208e-01
100 9 9.944737185000658e-01
100 12 9.590148033516301e-01
100 29 4.770379161008126e-01
100 53 9.668673915837119e-01
100 58 9.943961234065840e-01
100 68 4.833185321268190e-01
100 70 4.444458601229560e-01
100 83 9.995885549857580e-01
100 86 4.840438862290382e-01
100 90 4.214015295698670e-01
100 93 4.799897573785863e-01
100 95 4.699758870617231e-01
101 8 4.583909392606173e-01
101 20 3.712572827217190e-01
101 25 9.328291523920612e-01
101 27 4.745626363265532e-01
101 31 9.713124099166316e-01
101 32 3.915910154684497e-01
101 33 4.635346854334357e-01
101 47 9.934235807168538e-01
101 48 9.796950143806562e-01
101 50 4.725509395479260e-01
101 51 4.757010709048463e-01
101 52 9.650744814237506e-01
101 54 4.131490518099570e-01
101 56 4.835733775820014e-01
101 59 3.669548272255017e-01
101 66 9.919854271042770e-01
101 72 4.654203327549847e-01
101 74 4.761179856535144e-01
101 81 4.814103597766572e-01
101 91 9.755223507832886e-01
102 8 3.321683893848543e-01
102 20 9.108572425681669e-01
102 25 4.093446895617895e-01
102 32 3.322319432337586e-01
102 33 2.991579314147251e-01
102 47 3.404839900635430e-01
102 52 3.848400595588659e-01
102 54 8.847538537597209e-01
102 59 9.655148518369085e-01
102 62 3.201330522739061e-01
102 66 2.697860868403502e-01
102 101 3.064692742046383e-01
103 3 9.228472860810190e-01
103 11 9.613680699302273e-01
103 14 4.647881624484508e-01
103 16 4.426577777141151e-01
103 23 4.521018262732878e-01
103 34 4.565306991583961e-01
103 36 9.962868876762100e-01
103 40 4.388784184177998e-01
103 70 9.682996482504486e-01
103 71 4.276905145905793e-01
103 75 9.895778303404343e-01
103 84 9.427125276749877e-01
103 92 4.332892859009394e-01
103 96 9.877192817839843e-01
104 11 4.520508500160919e-01
104 14 9.766833761786791e-01
104 16 4.563424071301703e-01
104 21 4.591703076134933e-01
104 23 4.605139992052982e-01
104 34 4.715670499843803e-01
104 36 9.683812100219756e-01
104 38 4.474808447818754e-01
104 40 9.270333536391023e-01
104 49 9.552872649088127e-01
104 70 9.175498392877820e-01
104 75 9.599024827717779e-01
104 84 9.896469026300262e-01
104 92 4.471822079842318e-01
104 96 9.926050935156143e-01
104 103 9.769389281109510e-01
105 10 4.688470847983751e-01
105 24 9.957747997453684e-01
105 30 4.647113714170283e-01
105 35 9.989712202339177e-01
105 39 9.968569928750830e-01
105 42 4.691786395645673e-01
105 43 9.966882603443937e-01
105 45 4.787448698317979e-01
105 65 9.978839171035029e-01
105 67 4.706860603623457e-01
105 69 9.826399778624008e-01
105 85 9.917119949606560e-01
105 98 4.000767139888657e-01
106 4 4.738765038509362e-01
106 7 9.812531501358668e-01
106 13 9.926029813247493e-01
106 16 4.791015869341272e-01
106 17 9.904343671192644e-01
106 19 9.968014430102770e-01
106 21 4.854355684629362e-01
106 23 4.702213532934848e-01
106 26 4.846633098926192e-01
106 34 4.769027077241273e-01
106 44 9.980423790460541e-01
106 49 4.777020577320965e-01
106 60 9.912995477309531e-01
106 63 9.985691221816321e-01
106 64 9.833297631404374e-01
106 76 9.979158164927228e-01
106 77 9.741693630438596e-01
106 79 9.794513166279939e-01
106 97 9.980872559049622e-01
107 1 9.622351248972908e-01
107 10 9.579248654673422e-01
107 30 9.547263189576793e-01
107 42 4.769764621194743e-01
107 43 4.595149594786058e-01
107 45 4.865268158715465e-01
107 46 4.281826405338813e-01
107 67 9.938474200987499e-01
107 69 4.717541369437488e-01
107 85 4.712786165235211e-01
107 89 4.740085398585294e-01
107 98 4.626909233988826e-01
107 99 9.771311577126558e-01
107 105 9.431654140194921e-01
108 8 4.589086854842122e-01
108 20 3.339111635449281e-01
108 25 4.423130250441664e-01
108 27 9.812177808475674e-01
108 31 9.750137080045604e-01
108 32 3.587583111462360e-01
108 33 4.446857287442870e-01
108 41 4.606783008071108e-01
108 47 9.720541346766062e-01
108 48 9.965006744774667e-01
108 50 9.709030244714536e-01
108 51 9.815215296023331e-01
108 52 4.646282265422033e-01
108 54 3.789540008345733e-01
108 56 9.914776285255379e-01
108 59 3.389017644144601e-01
108 62 4.309698200612108e-01
108 66 9.993578540383156e-01
108 72 4.671397291948184e-01
108 74 9.826238842400917e-01
108 79 4.797614040958512e-01
108 81 9.890931882290752e-01
108 87 4.838830080417647e-01
108 91 9.912479308021904e-01
108 101 9.917876989849539e-01
108 102 2.735731956595220e-01
109 3 9.924533962856064e-01
109 11 9.676447885548071e-01
109 18 4.545789823316679e-01
109 28 4.561001840640912e-01
109 36 4.388960054735552e-01
109 70 4.362711288678942e-01
109 71 9.972643553757143e-01
109 75 4.321187010205389e-01
109 78 9.752408691099340e-01
109 80 9.905853978519572e-01
109 94 4.607626611714152e-01
109 103 8.883857735751984e-01
110 3 4.562563393064632e-01
110 6 9.819797523187832e-01
110 9 4.671809039952786e-01
110 11 4.568266592147922e-01
110 28 4.620496715305065e-01
110 36 9.494228088204152e-01
110 53 9.334077338456117e-01
110 58 4.753082592166955e-01
110 70 9.814743487231690e-01
110 71 4.514031309025285e-01
110 75 9.557473350586894e-01
110 78 9.267706374231200e-01
110 80 9.292977572394685e-01
110 83 4.704848858738443e-01
110 90 4.097798815069813e-01
110 92 4.033851172233685e-01
110 96 4.474721195032628e-01
110 100 4.683931232623423e-01
110 103 9.317611653736783e-01
110 109 4.593028275305232e-01
111 14 9.601391715630586e-01
111 21 9.774452480996154e-01
111 27 4.755297587143462e-01
111 38 9.684518133760246e-01
111 40 4.569386142038289e-01
111 41 9.556216237929861e-01
111 48 4.665905963187821e-01
111 49 9.817491449706420e-01
111 50 9.720100771664776e-01
111 56 4.666072489625142e-01
111 72 4.569141288878164e-01
111 74 4.800583366135856e-01
111 81 4.742031794795052e-01
111 84 9.705858236053191e-01
111 91 4.711589348116476e-01
111 92 4.241992243506932e-01
111 96 4.527249253626581e-01
111 104 9.406221484969050e-01
112 10 4.704207792487948e-01
112 24 9.870923463307532e-01
112 30 4.664764280460229e-01
112 35 9.955403679836723e-01
112 39 9.940958533158916e-01
112 42 4.788202162481490e-01
112 43 9.885837828973157e-01
112 45 9.744795892657814e-01
112 65 9.924702284435767e-01
112 67 9.620593308825692e-01
112 69 9.891396597057117e-01
112 85 9.947153658852352e-01
112 98 4.102679395546646e-01
112 105 9.975177320075692e-01
112 107 9.612132832697902e-01
113 2 9.994138206337104e-01
113 6 4.779967702565642e-01
113 9 9.848943939644189e-01
113 18 9.851765792946880e-01
113 28 9.871456250435532e-01
113 29 9.966670715159349e-01
113 37 4.936481795295251e-01
113 55 9.980036371695057e-01
113 57 9.903935422603893e-01
113 58 4.912899561779689e-01
113 61 9.978023253334874e-01
113 71 4.293865254181417e-01
113 78 4.668176553673292e-01
113 80 4.527881920308353e-01
113 82 9.947041950247258e-01
113 83 4.775546589763009e-01
113 86 9.996613916378124e-01
113 88 4.918374637703181e-01
113 94 4.908341688545027e-01
113 100 4.808574617420536e-01
114 3 9.855162255525203e-01
114 11 9.530200084443147e-01
114 18 4.550807022005409e-01
114 28 4.557263648501894e-01
114 36 4.236088219835633e-01
114 70 4.213381941976322e-01
114 71 9.995074320869736e-01
114 78 9.767954621967960e-01
114 80 9.907070256671154e-01
114 94 4.609383435878990e-01
114 103 4.296914362627560e-01
114 109 9.978682588705984e-01
114 110 4.484905729063043e-01
114 113 4.220974602451009e-01
115 20 3.314735256182236e-01
115 25 4.342162392526462e-01
115 27 4.827397476402590e-01
115 31 9.970988389055294e-01
115 32 3.792535587438295e-01
115 33 4.633818319571361e-01
115 38 4.473689285232244e-01
115 41 9.625085887720457e-01
115 47 9.604157544466563e-01
115 48 9.908884734417431e-01
115 50 9.844495100993278e-01
115 51 4.780035596118376e-01
115 52 4.545877737587183e-01
115 54 3.758193199743444e-01
115 56 9.745159590098756e-01
115 66 9.936428180667477e-01
115 72 9.759628278251355e-01
115 74 9.745928558001330e-01
115 81 9.786883930567235e-01
115 91 9.959680426202087e-01
115 101 9.840149791766183e-01
115 108 9.889940439188251e-01
116 1 4.803928944942119e-01
116 5 4.890646143443967e-01
116 10 4.495643585854345e-01
116 15 9.828181241995478e-01
116 22 9.840196056955649e-01
116 24 4.806135023225481e-01
116 30 4.450590084522528e-01
116 35 9.795476384600833e-01
116 39 9.827292374055239e-01
116 42 9.887431591461928e-01
116 43 4.800503148897506e-01
116 45 9.943428890183584e-01
116 46 3.578912327424362e-01
116 65 4.870535493712480e-01
116 67 4.876132604819209e-01
116 69 9.980361298362813e-01
116 73 4.901080337215283e-01
116 85 9.946986143468777e-01
116 89 4.887475365228849e-01
116 98 3.979255351874237e-01
116 99 4.622886939696369e-01
116 105 9.786555297798567e-01
116 107 4.799733602154641e-01
116 112 9.887806415424004e-01
117 2 4.797654498646167e-01
117 6 9.967783480148686e-01
117 9 9.898110880263948e-01
117 29 4.717834906145082e-01
117 53 9.726797302479725e-01
117 55 4.704839740221549e-01
117 58 9.942904910189435e-01
117 68 4.728605553407296e-01
117 70 4.623700604972983e-01
117 83 9.967777342647650e-01
117 86 4.818953069318992e-01
117 90 4.262224422355747e-01
117 95 4.596043074371963e-01
117 100 9.956771867300708e-01
117 110 9.644317709489357e-01
117 113 4.790959632787185e-01
118 14 9.955274337988751e-01
118 16 4.693658323724774e-01
118 19 4.721136554503716e-01
118 21 9.722430745707521e-01
118 23 9.376169071647611e-01
118 26 4.703253976881996e-01
118 34 9.637845316707121e-01
118 36 4.564559928769721e-01
118 38 4.585921406863313e-01
118 40 4.514584906430885e-01
118 49 9.918700002689895e-01
118 60 4.742648139150360e-01
118 75 4.494515479022490e-01
118 84 9.994185491387559e-01
118 92 4.243712975984632e-01
118 96 9.573791132156382e-01
118 103 9.312177801250272e-01
118 104 9.846933108708643e-01
118 111 9.771920574867553e-01
119 8 4.371441919184271e-01
119 20 9.346641960329762e-01
119 25 9.960760649560096e-01
119 32 8.488830700444598e-01
119 33 8.765262625582976e-01
119 47 9.452873889908595e-01
119 52 9.830872507855244e-01
119 54 9.743490828829474e-01
119 59 9.280937785748857e-01
119 66 4.237451140034089e-01
119 101 4.518279558415581e-01
119 102 8.615627169852257e-01
119 108 4.255749559410137e-01
119 115 4.139955823108589e-01
120 1 4.838376914894968e-01
120 2 4.936057474609198e-01
120 5 9.982689126080359e-01
120 9 4.910632716923347e-01
120 12 4.681456663064685e-01
120 15 9.966508684222912e-01
120 22 9.944460468546154e-01
120 29 9.903247190013644e-01
120 37 9.908172302636187e-01
120 42 9.875699738472234e-01
120 55 4.918573607676984e-01
120 57 4.920799664282554e-01
120 58 4.860256841805882e-01
120 61 4.904889750259307e-01
120 68 9.996587111122835e-01
120 73 9.904771826626101e-01
120 82 9.873964340810691e-01
120 83 4.795104843017798e-01
120 86 4.921676236427084e-01
120 88 9.923223152556937e-01
120 89 9.890861611772520e-01
120 93 9.983302166795570e-01
120 100 4.832898459422313e-01
120 117 4.736608954375073e-01
121 11 4.539074219974339e-01
121 14 9.473436629653340e-01
121 16 9.968342441071181e-01
121 19 4.687773427642135e-01
121 23 9.977444603911590e-01
121 26 9.934501931761778e-01
121 34 9.885909078348486e-01
121 44 4.788840482310440e-01
121 49 4.597727817327754e-01
121 60 4.855695018892502e-01
121 63 4.762132094033470e-01
121 76 4.684144982494386e-01
121 97 4.599530226760214e-01
121 106 4.694525462119870e-01
122 10 4.610344842277453e-01
122 24 9.955114856182370e-01
122 30 4.564930963220967e-01
122 35 9.998561411097083e-01
122 39 9.994169622659703e-01
122 42 4.724060008840186e-01
122 43 9.948254471214443e-01
122 45 4.803549965443086e-01
122 65 9.989745430765601e-01
122 67 4.695694867186368e-01
122 69 9.881466120888374e-01
122 73 4.733021028036057e-01
122 85 9.955912705712924e-01
122 105 9.989428748084193e-01
122 112 9.966895649600958e-01
122 116 9.827578626456498e-01
123 1 9.932456354405927e-01
123 5 9.937047483519102e-01
123 12 4.815651421506523e-01
123 15 9.930220613039582e-01
123 22 9.974645149047728e-01
123 42 9.979836638662507e-01
123 45 9.913911876200165e-01
123 46 3.810675226889415e-01
123 67 9.768190848029683e-01
123 68 9.925338725200661e-01
123 73 4.882518112214896e-01
123 89 9.999999988427378e-01
123 93 9.956428023410960e-01
123 95 4.581491821330952e-01
123 98 3.913448686986485e-01
123 99 4.779400839281561e-01
123 107 4.740159842538627e-01
123 116 9.775005026354106e-01
123 120 9.890799811775365e-01
124 2 9.963846844167676e-01
124 18 4.892978291298092e-01
124 28 4.891766676216309e-01
124 29 9.992816711516685e-01
124 37 9.970596523550034e-01
124 55 9.995043567715723e-01
124 57 9.989618080748031e-01
124 58 4.827530972269779e-01
124 61 9.992724419018255e-01
124 68 4.903728550880095e-01
124 73 9.866698230505323e-01
124 82 9.998831228126750e-01
124 86 9.945554300798077e-01
124 88 9.947477079797861e-01
124 94 4.861779263439148e-01
124 113 9.956500158656132e-01
124 120 4.927118954982708e-01
125 15 4.868757882557254e-01
125 24 9.765063010871395e-01
125 35 9.897309034004370e-01
125 39 9.931643777368163e-01
125 42 4.877659684098823e-01
125 43 9.737801597183396e-01
125 45 9.821439273971674e-01
125 65 9.866152100790915e-01
125 67 4.777329737913515e-01
125 69 9.996202293535016e-01
125 73 4.895627290501192e-01
125 85 9.993786702645312e-01
125 105 9.866205913820772e-01
125 107 4.704000851140047e-01
125 112 9.912890659738623e-01
125 116 9.965204203098966e-01
125 122 9.917284069587998e-01
126 2 9.952777060204878e-01
126 5 9.933147544186253e-01
126 6 4.688851112396726e-01
126 9 4.921554925450258e-01
126 15 4.957144728889100e-01
126 18 4.787640509321055e-01
126 22 4.930625594241185e-01
126 28 4.797308704826517e-01
126 29 9.973884639173474e-01
126 37 9.956473985369512e-01
126 55 9.935617220541058e-01
126 57 9.924617899286874e-01
126 58 4.881513107951782e-01
126 61 9.917786314170944e-01
126 68 9.956067984175012e-01
126 73 4.952257749704534e-01
126 82 9.953825881328082e-01
126 83 4.783776535134937e-01
126 86 9.931338469514358e-01
126 88 9.954619548350468e-01
126 89 4.884999169588387e-01
126 93 9.923755561661675e-01
126 100 4.822397155957661e-01
126 113 4.957561031210591e-01
126 117 4.749135557217294e-01
126 120 9.977075188080016e-01
126 123 4.884955403460405e-01
126 124 9.943421334736282e-01
127 4 3.556068537484275e-01
127 8 4.177907122706029e-01
127 20 8.727823467119842e-01
127 25 8.943909947969851e-01
127 33 3.327992184970437e-01
127 47 4.010724486466422e-01
127 52 8.732020136426828e-01
127 54 8.895138574561710e-01
127 59 9.983895074816231e-01
127 62 4.106329851666827e-01
127 66 3.408643072129749e-01
127 101 3.728345473754557e-01
127 102 9.505197806501090e-01
127 108 3.466709938202888e-01
127 119 9.271504382011324e-01
128 4 4.838199472806952e-01
128 7 9.905140111824600e-01
128 13 9.997357283612640e-01
128 17 9.989551887484152e-01
128 19 9.934109141863356e-01
128 21 4.885140121952743e-01
128 27 4.880117140995407e-01
128 44 9.853558061612926e-01
128 49 4.769058933730928e-01
128 51 9.822248066963555e-01
128 60 4.877320393617728e-01
128 62 4.368939053662643e-01
128 63 9.869035761444587e-01
128 64 9.958196235105439e-01
128 74 4.822338201459285e-01
128 76 9.894442557811621e-01
128 77 9.866290423279110e-01
128 79 9.955280846531145e-01
128 87 9.918446501755509e-01
128 97 9.961118274317172e-01
128 106 9.939884124393814e-01
129 13 4.874564638910661e-01
129 14 4.816101566448266e-01
129 16 9.832891514853834e-01
129 17 4.877773380313319e-01
129 19 9.937134480063405e-01
129 21 4.846178319946300e-01
129 23 9.713737216204821e-01
129 26 9.900854602953137e-01
129 34 9.802700320505582e-01
129 44 9.981448251044776e-01
129 49 4.826298368433813e-01
129 60 9.995717324128405e-01
129 63 9.962909911254472e-01
129 76 9.899053168743218e-01
129 84 4.675544178910988e-01
129 97 9.856011865642476e-01
129 106 9.939607316093322e-01
129 118 4.698451412151122e-01
129 121 4.844779898251329e-01
129 128 4.892441117987924e-01
130 7 9.760036105621003e-01
130 13 9.854439942355269e-01
130 16 4.827827926968192e-01
130 17 9.811434051606869e-01
130 19 9.920278973993216e-01
130 23 4.744046368900093e-01
130 26 9.754626534417894e-01
130 34 4.786292794987290e-01
130 44 9.992690458468804e-01
130 60 9.919179602475933e-01
130 63 9.999108965752744e-01
130 64 9.749693272118957e-01
130 76 9.989888747054045e-01
130 77 9.679039756267547e-01
130 97 9.958506058325978e-01
130 106 9.983714217932718e-01
130 121 4.751534103804259e-01
130 128 9.868201445880709e-01
130 129 9.951264296826082e-01
131 2 4.945562245484374e-01
131 5 9.946763237857233e-01
131 15 9.945955489577030e-01
131 22 4.943092373406160e-01
131 29 9.953747694141505e-01
131 37 9.988541871010950e-01
131 42 4.901578777776179e-01
131 55 9.910635320896439e-01
131 57 9.951665497711432e-01
131 61 9.893846320574812e-01
131 68 9.937352696234308e-01
131 73 9.975510534201150e-01
131 82 9.954463397193385e-01
131 86 4.927521595286907e-01
131 88 9.994881366127665e-01
131 89 4.885066238450187e-01
131 93 9.921789086767332e-01
131 113 4.923269997956475e-01
131 120 9.957610988221998e-01
131 123 4.885032978499416e-01
131 124 9.938913662781332e-01
131 126 9.975551704214115e-01
132 2 4.589244265911546e-01
132 3 9.447150886911340e-01
132 18 9.750434055337627e-01
132 28 9.753485335478113e-01
132 55 4.602379448439490e-01
132 61 4.624773781563526e-01
132 71 9.842888677518461e-01
132 78 9.999447841553456e-01
132 80 9.966521725645752e-01
132 86 4.618709165612943e-01
132 94 9.811818401176409e-01
132 109 9.762933149988992e-01
132 110 9.237937978746220e-01
132 113 4.651943588980313e-01
132 114 9.783361633683090e-01
