%%MatrixMarket matrix coordinate real symmetric
%
132 132 343
7 4 9.911517587789733e-01
8 4 4.873496733093989e-01
8 7 4.687176042505588e-01
11 3 9.902095488087582e-01
12 1 4.908382723632108e-01
13 7 4.966549557827651e-01
15 5 9.996611160859774e-01
17 13 9.981186454724930e-01
21 17 4.922028888586924e-01
21 19 4.932415364589809e-01
22 5 9.986574910264876e-01
22 15 9.988163757913360e-01
23 16 9.982309263027047e-01
25 20 4.592285138574676e-01
26 16 9.990928856307344e-01
26 23 9.948628531875172e-01
27 21 4.888570301157845e-01
28 18 9.995524384774794e-01
29 2 4.990829128096268e-01
30 10 9.997140675990450e-01
32 20 4.465828877532103e-01
32 25 4.340309953417121e-01
33 31 4.687300223850998e-01
33 32 9.370735529545163e-01
34 14 4.921808074636398e-01
34 16 9.962165923073499e-01
34 23 9.957800791492333e-01
34 26 9.951779023066335e-01
35 24 4.984826341084908e-01
39 35 9.993097626414468e-01
40 38 9.585165646416756e-01
41 31 4.881966491613283e-01
41 38 9.772883900681745e-01
42 1 4.936875335543749e-01
42 22 9.985973822481776e-01
43 24 9.993311551469291e-01
43 35 4.981145840659130e-01
44 19 4.971203363581382e-01
45 42 9.965430623434023e-01
47 25 4.835969370684261e-01
47 33 4.668727842818055e-01
49 14 9.919165964643269e-01
49 21 9.938557020974432e-01
50 31 4.917672977115937e-01
50 38 4.726096224758172e-01
50 41 4.900286274760926e-01
50 48 4.932168718114929e-01
51 27 9.972732668579876e-01
52 25 9.929825799759521e-01
52 47 9.883551692322500e-01
53 6 4.824021111945169e-01
54 20 9.882059200086499e-01
54 25 9.665612303825507e-01
54 32 4.550714145918566e-01
54 52 4.653015710569904e-01
55 2 4.990376003485483e-01
55 29 9.991102066990390e-01
56 27 9.976881554626437e-01
56 51 9.973574393403244e-01
57 29 4.986802173685110e-01
57 37 9.986368979263481e-01
58 6 4.950185408525025e-01
58 9 9.987390559507646e-01
59 54 4.510003563287183e-01
60 19 4.965817806596394e-01
60 44 4.980142399304022e-01
61 18 4.926152753444283e-01
61 28 4.926631606900925e-01
61 29 9.983929628135817e-01
61 55 9.998888653005455e-01
62 4 4.827968857225671e-01
62 7 4.639257026534793e-01
62 8 9.896686597507748e-01
63 44 9.996799383883791e-01
63 60 4.967331798655079e-01
64 4 4.930861951669289e-01
64 7 9.974245421004649e-01
64 13 9.975880127355259e-01
65 24 9.985488960661212e-01
65 35 9.995767452165771e-01
65 39 9.988523054035013e-01
65 43 4.986714087352602e-01
66 47 4.856654140070268e-01
66 48 9.971194297927652e-01
67 1 9.853533526321105e-01
67 45 4.949940446088116e-01
68 5 9.988832984874295e-01
68 15 9.973270607676941e-01
69 39 4.948146141019076e-01
70 36 9.850038244624899e-01
71 3 4.908889937977981e-01
72 31 9.895810226713794e-01
72 33 4.685928905791046e-01
72 41 9.899904030873387e-01
72 50 4.846211766638482e-01
73 15 4.974647119770396e-01
73 37 4.981051561085137e-01
74 27 9.985538500240239e-01
74 48 4.968637654347393e-01
74 50 4.945065130134644e-01
74 56 9.962229836564819e-01
75 36 9.982769807066901e-01
75 70 9.917257738207426e-01
76 63 9.984063288688431e-01
77 4 9.951289581095345e-01
77 7 9.993866571491420e-01
77 8 4.743353892265779e-01
77 13 4.950415233199041e-01
77 62 4.692422004926954e-01
77 64 9.965371597698450e-01
78 71 4.914744916983131e-01
79 13 4.979490336988582e-01
79 17 9.972566483715365e-01
79 51 4.977538373387070e-01
79 64 9.958482918226120e-01
80 71 9.943069624812018e-01
80 78 9.962760716178518e-01
81 27 9.983426856458100e-01
81 48 9.968161913799972e-01
81 50 4.931103108914974e-01
81 56 9.987043716138304e-01
81 74 9.991445919862039e-01
82 29 9.994082429892713e-01
82 37 4.990389567786563e-01
82 55 9.990222913979716e-01
82 57 9.992375612031760e-01
82 61 4.993014052333100e-01
83 6 4.935896861412417e-01
83 9 9.915341300834887e-01
83 53 4.867994456220069e-01
83 58 9.924743454336522e-01
84 14 9.953964294847616e-01
84 49 9.875590087002375e-01
85 39 4.981757329228743e-01
85 69 9.981708891912980e-01
86 2 9.997298358277005e-01
86 29 4.982677327250437e-01
86 55 4.984858475361065e-01
87 4 4.878010169622856e-01
87 17 9.938808777542246e-01
87 51 9.977110002363156e-01
87 64 4.975328537599287e-01
87 79 9.993276581590964e-01
88 37 9.996418306558686e-01
88 57 4.984772165030925e-01
88 73 9.981089146581736e-01
89 1 4.966213303271033e-01
89 12 4.815655390864688e-01
89 22 4.987328435063668e-01
89 42 9.979823359035507e-01
89 45 4.956929859299924e-01
90 53 4.734444604621320e-01
90 70 4.327899535859349e-01
91 31 4.950582418234131e-01
91 48 9.975531175181788e-01
91 50 9.934615551796662e-01
91 66 9.943488658660726e-01
92 40 9.883565842146927e-01
92 75 4.543861448916811e-01
92 90 9.219629423191591e-01
93 5 9.995992810637667e-01
93 15 9.987026750090432e-01
93 22 9.987367040392467e-01
93 68 9.993732310593961e-01
93 89 4.978231682158535e-01
94 18 9.994536966060134e-01
94 28 9.994986877132468e-01
94 78 9.826968639987841e-01
95 1 4.725222933985750e-01
95 12 9.894826639490941e-01
95 46 4.265365364777278e-01
95 53 4.765599281456755e-01
95 83 4.715709942128890e-01
95 90 4.520430825425298e-01
96 36 9.881488530642859e-01
96 40 4.689828641961672e-01
96 75 9.852476773127266e-01
96 92 4.609719072752758e-01
97 13 9.961182608346092e-01
97 76 9.981680042169735e-01
98 10 4.679881787211475e-01
98 30 9.416719275331917e-01
98 46 9.323864341605249e-01
99 1 4.909863530892652e-01
99 12 9.692051639915961e-01
99 46 4.541097602368909e-01
99 67 9.837422861414286e-01
100 6 4.927464954462604e-01
100 9 9.944737185000658e-01
100 53 4.834336957918560e-01
100 58 9.943961234065840e-01
100 83 9.995885549857580e-01
101 47 9.934235807168538e-01
101 52 4.825372407118753e-01
101 66 4.959927135521385e-01
102 20 9.108572425681669e-01
102 54 4.423769268798605e-01
102 59 9.655148518369085e-01
103 11 4.806840349651136e-01
103 36 9.962868876762100e-01
103 70 4.841498241252243e-01
103 75 9.895778303404343e-01
103 96 9.877192817839843e-01
104 40 4.635166768195512e-01
104 84 9.896469026300262e-01
104 96 9.926050935156143e-01
104 103 9.769389281109510e-01
105 10 4.688470847983751e-01
105 24 4.978873998726842e-01
105 35 9.989712202339177e-01
105 39 4.984284964375415e-01
105 43 4.983441301721969e-01
105 65 4.989419585517514e-01
106 19 4.984007215051385e-01
106 44 9.980423790460541e-01
106 63 9.985691221816321e-01
106 76 4.989579082463614e-01
106 97 9.980872559049622e-01
107 1 4.811175624486454e-01
107 10 4.789624327336711e-01
107 30 4.773631594788397e-01
107 45 4.865268158715465e-01
107 46 4.281826405338813e-01
107 67 9.938474200987499e-01
107 98 4.626909233988826e-01
107 99 9.771311577126558e-01
108 47 4.860270673383031e-01
108 48 9.965006744774667e-01
108 56 4.957388142627689e-01
108 66 9.993578540383156e-01
108 101 9.917876989849539e-01
109 3 9.924533962856064e-01
109 11 4.838223942774035e-01
109 71 9.972643553757143e-01
109 80 4.952926989259786e-01
110 6 4.909898761593916e-01
110 70 9.814743487231690e-01
110 75 4.778736675293447e-01
111 21 4.887226240498077e-01
111 38 4.842259066880123e-01
111 49 4.908745724853210e-01
111 50 4.860050385832388e-01
112 10 4.704207792487948e-01
112 30 4.664764280460229e-01
112 35 4.977701839918361e-01
112 85 4.973576829426176e-01
112 105 9.975177320075692e-01
113 2 9.994138206337104e-01
113 18 4.925882896473440e-01
113 28 4.935728125217766e-01
113 55 4.990018185847528e-01
113 61 4.989011626667437e-01
113 86 9.996613916378124e-01
113 94 4.908341688545027e-01
114 3 9.855162255525203e-01
114 11 4.765100042221573e-01
114 71 9.995074320869736e-01
114 80 9.907070256671154e-01
114 109 9.978682588705984e-01
115 31 9.970988389055294e-01
115 48 4.954442367208716e-01
115 66 9.936428180667477e-01
115 72 4.879814139125678e-01
115 91 9.959680426202087e-01
115 101 4.920074895883091e-01
116 45 9.943428890183584e-01
116 69 9.980361298362813e-01
116 85 4.973493071734388e-01
117 6 9.967783480148686e-01
117 9 4.949055440131974e-01
117 53 4.863398651239862e-01
117 58 9.942904910189435e-01
117 83 9.967777342647650e-01
117 100 9.956771867300708e-01
117 110 4.822158854744679e-01
118 14 9.955274337988751e-01
118 49 9.918700002689895e-01
118 84 9.994185491387559e-01
118 104 9.846933108708643e-01
118 111 4.885960287433777e-01
119 20 4.673320980164881e-01
119 25 9.960760649560096e-01
119 47 4.726436944954298e-01
119 52 9.830872507855244e-01
119 54 9.743490828829474e-01
119 59 4.640468892874429e-01
120 5 4.991344563040179e-01
120 68 9.996587111122835e-01
120 93 4.991651083397785e-01
121 16 9.968342441071181e-01
121 23 9.977444603911590e-01
121 26 9.934501931761778e-01
121 34 9.885909078348486e-01
122 35 9.998561411097083e-01
122 39 9.994169622659703e-01
122 65 9.989745430765601e-01
122 85 4.977956352856462e-01
122 105 9.989428748084193e-01
122 112 4.983447824800479e-01
123 1 4.966228177202964e-01
123 22 4.987322574523864e-01
123 42 9.979836638662507e-01
123 45 4.956955938100083e-01
123 89 9.999999988427378e-01
123 93 4.978214011705480e-01
124 29 9.992816711516685e-01
124 55 9.995043567715723e-01
124 57 4.994809040374015e-01
124 61 9.992724419018255e-01
124 82 9.998831228126750e-01
125 39 4.965821888684082e-01
125 69 9.996202293535016e-01
125 85 9.993786702645312e-01
125 116 9.965204203098966e-01
126 29 4.986942319586737e-01
126 37 4.978236992684756e-01
126 120 9.977075188080016e-01
127 25 4.471954973984926e-01
127 59 9.983895074816231e-01
127 102 9.505197806501090e-01
127 119 4.635752191005662e-01
128 13 9.997357283612640e-01
128 17 9.989551887484152e-01
128 19 4.967054570931678e-01
128 64 4.979098117552719e-01
128 97 9.961118274317172e-01
129 19 4.968567240031703e-01
129 44 9.981448251044776e-01
129 60 9.995717324128405e-01
129 63 4.981454955627236e-01
130 44 9.992690458468804e-01
130 63 9.999108965752744e-01
130 76 9.989888747054045e-01
130 106 9.983714217932718e-01
130 129 4.975632148413041e-01
131 37 9.988541871010950e-01
131 73 9.975510534201150e-01
131 88 9.994881366127665e-01
131 126 9.975551704214115e-01
132 71 9.842888677518461e-01
132 78 9.999447841553456e-01
132 80 9.966521725645752e-01
132 94 4.905909200588204e-01
