%%MatrixMarket matrix coordinate real general
%
130 130 1508
1 10 4.9999998922273153E-1
1 18 4.9999998189869166E-1
1 29 4.999999837862776E-1
1 30 9.99999996865943E-1
1 33 9.999999943537847E-1
1 55 9.999999967109428E-1
1 58 4.9999998607853735E-1
1 61 9.999999955655098E-1
1 79 9.999999930711374E-1
1 83 9.999999995387312E-1
1 84 4.999999826827286E-1
1 112 9.999999989990197E-1
1 123 9.999999938169873E-1
1 125 9.999999919193154E-1
2 12 9.999999832040305E-1
2 37 9.999998336699822E-1
2 70 9.999999686056681E-1
2 77 9.999999008324317E-1
2 101 4.999999314658089E-1
2 108 9.999999870680766E-1
2 109 4.9999992185311887E-1
2 113 9.999999750934435E-1
2 130 9.999999029120518E-1
3 9 9.999999562526061E-1
3 14 4.999999767110416E-1
3 51 4.999999704179569E-1
3 62 9.99999940229715E-1
3 65 9.999999762296893E-1
3 76 4.999999785472759E-1
3 78 4.999999758379679E-1
3 85 4.9999997891644166E-1
3 126 4.999999719216789E-1
4 5 4.999999815755545E-1
4 16 9.999999994213816E-1
4 23 9.999999977066172E-1
4 43 9.999999907015752E-1
4 72 9.999999884347185E-1
4 87 9.999999892251673E-1
4 91 9.999999993157819E-1
4 120 9.999999970422406E-1
4 125 4.999999942745347E-1
4 129 9.999999908874924E-1
5 4 4.999999815755545E-1
5 10 4.9999998484013847E-1
5 13 9.999999716036506E-1
5 23 4.9999998203040735E-1
5 80 9.999999710409122E-1
5 87 9.999999772083703E-1
5 91 4.9999998619198355E-1
5 93 4.9999996078333664E-1
5 97 4.9999994904222406E-1
5 98 9.999999766477152E-1
5 116 4.999999714985159E-1
5 120 4.9999998453576644E-1
6 22 9.999999725481039E-1
6 25 9.999999999899093E-1
6 36 9.999999945061708E-1
6 40 9.999999906830135E-1
6 44 9.999999990151305E-1
6 66 9.99999997252877E-1
6 103 9.999999926617354E-1
6 111 4.999999887667237E-1
6 122 9.999999919590107E-1
7 10 4.9999998462096845E-1
7 53 9.999999388332503E-1
7 58 9.999999829066691E-1
7 80 9.999999779719569E-1
7 83 4.9999996545697956E-1
7 84 9.99999981219419E-1
7 88 4.9999985313147577E-1
7 98 9.999999750531955E-1
7 109 9.999999689564644E-1
7 116 9.999999944913293E-1
8 19 9.999999894106053E-1
8 24 4.999999694771443E-1
8 27 4.9999998822615827E-1
8 35 4.999999768870574E-1
8 45 9.999999993939508E-1
8 60 9.999999964371854E-1
8 63 4.999999893732919E-1
8 64 9.99999997745295E-1
8 75 9.999999900674807E-1
8 95 4.999999914930723E-1
8 105 9.999999938962554E-1
8 121 4.9999996876134956E-1
8 127 9.999999989236728E-1
8 128 9.999999965419903E-1
9 3 9.999999562526061E-1
9 47 4.9999992988626335E-1
9 51 4.999999282935828E-1
9 52 9.99999856461878E-1
9 59 4.999998224359102E-1
9 62 9.99999982271276E-1
9 65 4.999999380338975E-1
9 85 4.999999316517447E-1
9 99 4.9999992583722824E-1
9 107 4.999999268007763E-1
9 119 4.9999988532753725E-1
10 1 4.9999998922273153E-1
10 5 4.9999998484013847E-1
10 7 4.9999998462096845E-1
10 33 4.999999929305293E-1
10 53 4.9999994506095763E-1
10 58 9.999999978460409E-1
10 80 9.999999854861E-1
10 83 4.999999904607008E-1
10 84 9.99999973492887E-1
10 93 4.999999166475196E-1
10 98 9.999999905397313E-1
10 109 4.9999994205001524E-1
10 112 4.999999870079762E-1
10 116 9.999999825169407E-1
11 22 4.999999772973133E-1
11 31 9.999999995118052E-1
11 44 4.999999401600246E-1
11 46 4.9999979709692693E-1
11 68 4.9999993353530997E-1
11 96 9.999998870473618E-1
11 103 4.9999994508881007E-1
11 106 9.999999266172441E-1
11 111 4.9999994794902713E-1
11 122 4.999999307456176E-1
12 2 9.999999832040305E-1
12 24 4.9999992682800815E-1
12 37 9.999999025210601E-1
12 70 9.999999076685762E-1
12 74 9.999998722096823E-1
12 101 9.999999327424354E-1
12 108 9.999999438519919E-1
12 109 4.9999992291941037E-1
12 113 9.999999178537603E-1
13 5 9.999999716036506E-1
13 23 4.999999504968018E-1
13 43 4.999999524477345E-1
13 46 4.999998556593416E-1
13 53 4.9999994407519577E-1
13 80 4.999999637267482E-1
13 87 4.999999679351012E-1
13 88 4.9999985858842727E-1
13 91 4.99999951901838E-1
13 93 9.999999819504113E-1
13 97 9.999999466026136E-1
13 98 4.9999996427926835E-1
14 3 4.999999767110416E-1
14 17 9.999999967852502E-1
14 19 4.999999920357982E-1
14 62 4.9999989480721396E-1
14 65 9.999999958774402E-1
14 76 9.999999962828808E-1
14 78 9.99999992983049E-1
14 85 9.999999876918555E-1
14 95 9.999999933604552E-1
14 105 4.999999936626804E-1
14 126 9.999999995487933E-1
15 21 4.999999774153063E-1
15 24 4.9999996970584426E-1
15 27 4.999999720763289E-1
15 35 9.999999730922275E-1
15 49 9.999999861444693E-1
15 60 4.999999744068807E-1
15 63 9.999999682406876E-1
15 81 9.999999921229418E-1
15 94 4.99999951317525E-1
15 101 4.99999937667102E-1
15 102 9.999999597239967E-1
15 110 4.999999652794213E-1
15 117 4.999999554472957E-1
15 118 9.999999923476033E-1
16 4 9.999999994213816E-1
16 23 9.999999979781978E-1
16 43 9.999999922287917E-1
16 68 4.999999619906669E-1
16 72 9.999999913218256E-1
16 86 4.999999931491627E-1
16 87 9.9999998805049E-1
16 91 9.999999977838542E-1
16 115 4.9999998520665995E-1
16 120 9.999999942729871E-1
16 129 4.9999999537442763E-1
17 14 9.999999967852502E-1
17 19 9.999999886878932E-1
17 21 4.999999865844077E-1
17 28 4.999999859387629E-1
17 51 4.999999887871899E-1
17 65 9.999999887759651E-1
17 76 9.999999962889651E-1
17 78 9.999999953102947E-1
17 85 9.999999895217451E-1
17 95 9.99999985340337E-1
17 105 4.9999999179578813E-1
17 126 9.999999982154345E-1
18 1 4.9999998189869166E-1
18 29 9.999999992357813E-1
18 55 4.9999998528894757E-1
18 61 4.999999872992596E-1
18 70 4.9999993080775157E-1
18 77 9.999999597305974E-1
18 83 4.9999998353067515E-1
18 92 9.999999990671319E-1
18 112 4.999999872524995E-1
18 113 4.999999196508917E-1
18 123 4.999999815315929E-1
18 130 4.9999997842755034E-1
19 8 9.999999894106053E-1
19 14 4.999999920357982E-1
19 17 9.999999886878932E-1
19 21 4.9999998838370907E-1
19 45 9.999999901396333E-1
19 49 4.999999786619793E-1
19 60 9.999999882892054E-1
19 64 9.999999883678378E-1
19 75 4.9999999107811505E-1
19 95 4.99999993141701E-1
19 105 9.999999945308825E-1
19 126 9.999999887143237E-1
19 127 9.99999989234136E-1
19 128 9.999999863360125E-1
20 26 9.999998547908954E-1
20 34 9.999998071227371E-1
20 47 4.999998135292793E-1
20 52 4.9999987960489795E-1
20 54 9.999999797462488E-1
20 59 9.99999804569229E-1
20 100 9.999998406064258E-1
20 104 9.999998937531743E-1
20 119 9.999998846524218E-1
21 15 4.999999774153063E-1
21 17 4.999999865844077E-1
21 19 4.9999998838370907E-1
21 28 4.9999998076228414E-1
21 49 9.999999894785018E-1
21 73 4.999999791473734E-1
21 76 4.9999997750988284E-1
21 78 4.999999794588579E-1
21 81 4.999999691637393E-1
21 110 9.999999610551452E-1
21 118 4.9999997597257306E-1
21 126 4.9999998016314867E-1
22 6 9.999999725481039E-1
22 11 4.999999772973133E-1
22 25 9.999999717843304E-1
22 31 4.9999997250343886E-1
22 36 4.999999840057417E-1
22 40 4.999999773527154E-1
22 44 9.999999819570078E-1
22 66 4.999999830380478E-1
22 96 4.999998577023112E-1
22 103 4.9999999002669565E-1
22 106 4.999999515783479E-1
22 111 4.9999998594015843E-1
22 122 4.9999998318570693E-1
23 4 9.999999977066172E-1
23 5 4.9999998203040735E-1
23 13 4.999999504968018E-1
23 16 9.999999979781978E-1
23 43 9.999999976038624E-1
23 68 4.999999721181044E-1
23 72 4.999999907898092E-1
23 87 9.999999956680959E-1
23 91 9.999999978420208E-1
23 97 4.999999431419557E-1
23 115 4.999999862494966E-1
23 120 9.99999990492229E-1
23 125 4.9999998807392854E-1
23 129 4.999999902293959E-1
24 8 4.999999694771443E-1
24 12 4.9999992682800815E-1
24 15 4.9999996970584426E-1
24 27 9.999999912075973E-1
24 35 9.999999927807856E-1
24 45 4.99999963338881E-1
24 60 4.9999997845799127E-1
24 63 9.999999841542176E-1
24 121 9.99999996145142E-1
24 127 4.999999752089955E-1
25 6 9.999999999899093E-1
25 22 9.999999717843304E-1
25 36 9.999999948114284E-1
25 40 9.999999912025743E-1
25 44 9.9999999885781E-1
25 66 9.999999975209717E-1
25 103 9.999999927717347E-1
25 111 4.9999998891072794E-1
25 122 9.99999992320255E-1
26 20 9.999998547908954E-1
26 34 4.999998792269665E-1
26 47 9.999999430562961E-1
26 52 9.99999987978091E-1
26 54 9.999999419392903E-1
26 59 9.999998089913281E-1
26 99 4.9999994064873965E-1
26 100 4.9999982924346686E-1
26 104 9.999999745924004E-1
26 107 4.999998953609893E-1
26 119 9.999999932881389E-1
27 8 4.9999998822615827E-1
27 15 4.999999720763289E-1
27 24 9.999999912075973E-1
27 35 9.999999917481202E-1
27 45 4.999999843289418E-1
27 60 9.999999859166105E-1
27 63 9.999999959926513E-1
27 64 4.999999805545652E-1
27 121 9.999999887818217E-1
27 127 9.999999829900869E-1
28 17 4.999999859387629E-1
28 21 4.9999998076228414E-1
28 48 9.999999841861106E-1
28 50 4.9999998251231104E-1
28 51 9.999999953387425E-1
28 56 9.99999996048802E-1
28 67 4.999999821263137E-1
28 73 9.99999997529441E-1
28 76 9.999999771890423E-1
28 78 9.999999840731054E-1
28 85 9.999999865208062E-1
28 89 9.999999723275048E-1
28 107 4.999999838156459E-1
29 1 4.999999837862776E-1
29 18 9.999999992357813E-1
29 55 4.999999855919974E-1
29 61 4.9999998738222773E-1
29 70 4.999999318308282E-1
29 77 4.9999998029047704E-1
29 83 4.9999998577821786E-1
29 84 9.999999663861261E-1
29 92 9.999999991439781E-1
29 108 4.999999215609327E-1
29 112 4.9999998895679837E-1
29 113 4.999999208610633E-1
29 123 4.999999813202037E-1
29 130 4.9999997869462204E-1
30 1 9.99999996865943E-1
30 33 4.9999999645301957E-1
30 38 9.99999994665983E-1
30 55 9.999999984803272E-1
30 57 9.999999954879502E-1
30 61 9.99999997254365E-1
30 79 9.999999989894923E-1
30 83 4.9999999703765263E-1
30 86 4.9999999575519954E-1
30 112 9.999999943007407E-1
30 123 9.999999987732756E-1
30 125 9.999999955359257E-1
30 129 4.9999999604289685E-1
31 11 9.999999995118052E-1
31 22 4.9999997250343886E-1
31 44 4.999999324058571E-1
31 46 4.999998029604006E-1
31 68 4.999999288442888E-1
31 96 9.999998974040741E-1
31 103 4.999999375260663E-1
31 106 9.999999209075223E-1
31 111 4.999999407619248E-1
31 122 4.999999222959304E-1
32 39 4.999999226131813E-1
32 42 9.999999592168975E-1
32 47 4.999999523136999E-1
32 48 4.9999998260328493E-1
32 50 9.999999716573619E-1
32 67 9.999999694655515E-1
32 71 9.999999821200992E-1
32 89 9.999999830435774E-1
32 99 9.999999503102357E-1
32 107 4.999999784015523E-1
32 114 9.999999950401303E-1
33 1 9.999999943537847E-1
33 10 4.999999929305293E-1
33 30 4.9999999645301957E-1
33 55 4.999999934660369E-1
33 58 4.9999998773457294E-1
33 79 4.9999999347240226E-1
33 80 4.9999997309212957E-1
33 83 9.999999924805751E-1
33 98 4.9999997876660357E-1
33 112 9.99999988752531E-1
33 120 9.999999934083477E-1
33 125 9.99999997905924E-1
33 129 4.9999999390544747E-1
34 20 9.999998071227371E-1
34 26 4.999998792269665E-1
34 47 4.999998282324145E-1
34 52 4.9999984488964216E-1
34 54 9.999998392669427E-1
34 71 4.999997838321961E-1
34 99 4.999997913966597E-1
34 100 4.999996510834306E-1
34 104 4.9999983116377994E-1
34 119 4.9999986015684783E-1
35 8 4.999999768870574E-1
35 15 9.999999730922275E-1
35 24 9.999999927807856E-1
35 27 9.999999917481202E-1
35 45 4.999999712996784E-1
35 49 4.999999700556147E-1
35 60 4.9999998687651664E-1
35 63 9.999999951198697E-1
35 81 4.9999996983716033E-1
35 118 4.999999685140227E-1
35 121 9.99999980411189E-1
35 127 4.999999829907953E-1
36 6 9.999999945061708E-1
36 22 4.999999840057417E-1
36 25 9.999999948114284E-1
36 40 9.999999988212653E-1
36 44 9.99999993550516E-1
36 66 9.999999992772943E-1
36 69 4.999999877046805E-1
36 82 9.999999898173153E-1
36 103 9.999999982428308E-1
36 111 9.999999923697828E-1
36 122 9.999999997543959E-1
36 124 4.9999999118932004E-1
37 2 9.999998336699822E-1
37 12 9.999999025210601E-1
37 74 9.999999970560377E-1
37 81 4.999999338010677E-1
37 90 4.99999902856565E-1
37 94 9.999999796476623E-1
37 101 9.999999936494213E-1
37 102 9.999999451507041E-1
37 109 9.999999113979452E-1
37 118 4.999999222265502E-1
38 30 9.99999994665983E-1
38 55 9.999999904325172E-1
38 57 9.999999976714143E-1
38 61 4.999999943729332E-1
38 72 9.999999935182043E-1
38 79 9.999999967155829E-1
38 86 9.999999993884473E-1
38 120 4.9999999212567997E-1
38 123 9.999999949730376E-1
38 125 9.999999925533068E-1
38 129 9.99999998042822E-1
39 32 4.999999226131813E-1
39 41 9.999999276713957E-1
39 42 9.999999607811665E-1
39 50 4.999999519114186E-1
39 71 9.999998948265849E-1
39 81 4.999999200376024E-1
39 90 4.999999181746875E-1
39 110 9.999999452751643E-1
39 117 9.999999627629254E-1
39 118 4.99999926211802E-1
40 6 9.999999906830135E-1
40 22 4.999999773527154E-1
40 25 9.999999912025743E-1
40 36 9.999999988212653E-1
40 44 4.9999999394661804E-1
40 66 9.99999998039606E-1
40 69 4.9999999110162846E-1
40 82 9.999999937600721E-1
40 103 9.999999946260152E-1
40 111 9.999999898909568E-1
40 115 4.9999998512945926E-1
40 122 9.999999990043861E-1
40 124 9.999999882906089E-1
41 39 9.999999276713957E-1
41 74 9.999998261808554E-1
41 81 4.999999148321882E-1
41 88 4.999998681148222E-1
41 90 9.999999800065026E-1
41 94 9.999998906719393E-1
41 102 4.999999353288639E-1
41 110 4.999999231285693E-1
41 117 9.999999449104655E-1
41 118 4.999999128297488E-1
42 32 9.999999592168975E-1
42 39 9.999999607811665E-1
42 48 4.9999994936879766E-1
42 50 9.999999656110004E-1
42 71 9.999999828261786E-1
42 73 4.999999479197669E-1
42 89 4.999999673687451E-1
42 110 4.9999996125382773E-1
42 114 4.9999996738324665E-1
43 4 9.999999907015752E-1
43 13 4.999999524477345E-1
43 16 9.999999922287917E-1
43 23 9.999999976038624E-1
43 68 4.999999823195012E-1
43 69 4.999999836870858E-1
43 72 4.9999998586085864E-1
43 87 9.999999965520969E-1
43 91 9.99999991216832E-1
43 97 4.999999551510581E-1
43 106 4.9999995976203226E-1
43 115 9.999999806740818E-1
43 120 4.999999893236463E-1
44 6 9.999999990151305E-1
44 11 4.999999401600246E-1
44 22 9.999999819570078E-1
44 25 9.9999999885781E-1
44 31 4.999999324058571E-1
44 36 9.99999993550516E-1
44 40 4.9999999394661804E-1
44 66 9.999999954577953E-1
44 103 9.999999943370335E-1
44 111 4.999999901994427E-1
44 122 9.999999911434092E-1
45 8 9.999999993939508E-1
45 19 9.999999901396333E-1
45 24 4.99999963338881E-1
45 27 4.999999843289418E-1
45 35 4.999999712996784E-1
45 60 9.999999932065828E-1
45 63 4.9999998550311975E-1
45 64 9.999999994535244E-1
45 75 9.999999943232871E-1
45 95 9.999999885574612E-1
45 105 9.999999966548028E-1
45 121 4.9999996316892026E-1
45 127 9.99999996830026E-1
45 128 9.999999987517069E-1
46 11 4.9999979709692693E-1
46 13 4.999998556593416E-1
46 31 4.999998029604006E-1
46 68 4.9999984948036424E-1
46 87 4.999997681238679E-1
46 93 4.9999986435960597E-1
46 96 9.999998804870857E-1
46 97 4.9999991782780984E-1
46 106 4.999998676473798E-1
47 9 4.9999992988626335E-1
47 20 4.999998135292793E-1
47 26 9.999999430562961E-1
47 32 4.999999523136999E-1
47 34 4.999998282324145E-1
47 48 4.9999995729399893E-1
47 52 9.999999800040585E-1
47 54 4.999998903118529E-1
47 67 4.999999751713031E-1
47 99 9.999999887360905E-1
47 100 4.999996720254781E-1
47 104 4.9999992881129013E-1
47 107 4.999999758066799E-1
47 114 4.9999996552526904E-1
47 119 9.999999039459058E-1
48 28 9.999999841861106E-1
48 32 4.9999998260328493E-1
48 42 4.9999994936879766E-1
48 47 4.9999995729399893E-1
48 50 9.999999766820504E-1
48 51 9.999999768490657E-1
48 56 9.99999992783499E-1
48 67 9.999999950753836E-1
48 71 4.9999995211969034E-1
48 73 9.999999892583293E-1
48 89 9.999999958177243E-1
48 99 4.9999998248995353E-1
48 107 9.999999940157049E-1
48 114 9.999999843741044E-1
49 15 9.999999861444693E-1
49 19 4.999999786619793E-1
49 21 9.999999894785018E-1
49 35 4.999999700556147E-1
49 60 4.9999997482180736E-1
49 63 4.99999974778567E-1
49 81 9.999999786283379E-1
49 102 4.999999609551241E-1
49 110 9.999999685555152E-1
49 117 4.9999996252880546E-1
49 118 9.999999860642732E-1
50 28 4.9999998251231104E-1
50 32 9.999999716573619E-1
50 39 4.999999519114186E-1
50 42 9.999999656110004E-1
50 48 9.999999766820504E-1
50 56 4.999999801823664E-1
50 67 4.9999997928718437E-1
50 71 4.999999733340584E-1
50 73 9.999999811399622E-1
50 89 9.999999888013459E-1
50 110 4.9999997576799177E-1
50 114 9.999999732446534E-1
51 3 4.999999704179569E-1
51 9 4.999999282935828E-1
51 17 4.999999887871899E-1
51 28 9.999999953387425E-1
51 48 9.999999768490657E-1
51 56 9.99999995482823E-1
51 62 4.9999989098039355E-1
51 65 9.999999765251106E-1
51 73 9.999999868837822E-1
51 76 9.999999878802902E-1
51 78 9.999999923137199E-1
51 85 9.999999960878909E-1
51 107 4.9999998407983787E-1
52 9 9.99999856461878E-1
52 20 4.9999987960489795E-1
52 26 9.99999987978091E-1
52 34 4.9999984488964216E-1
52 47 9.999999800040585E-1
52 54 9.999998772188768E-1
52 59 4.999998786408783E-1
52 67 4.9999993478885807E-1
52 99 9.999999393113824E-1
52 100 4.999997765530065E-1
52 104 9.999999443296975E-1
52 107 4.999999373733348E-1
52 119 9.999999708807231E-1
53 7 9.999999388332503E-1
53 10 4.9999994506095763E-1
53 13 4.9999994407519577E-1
53 58 4.999999515500097E-1
53 80 9.99999954324128E-1
53 88 9.999999068357321E-1
53 93 9.999999180326072E-1
53 98 4.999999712399723E-1
53 116 9.999999527116854E-1
54 20 9.999999797462488E-1
54 26 9.999999419392903E-1
54 34 9.999998392669427E-1
54 47 4.999998903118529E-1
54 52 9.999998772188768E-1
54 59 9.999998239262403E-1
54 100 9.999997909685938E-1
54 104 9.99999951729308E-1
54 119 9.999999556390274E-1
55 1 9.999999967109428E-1
55 18 4.9999998528894757E-1
55 29 4.999999855919974E-1
55 30 9.999999984803272E-1
55 33 4.999999934660369E-1
55 38 9.999999904325172E-1
55 57 9.999999950146676E-1
55 61 9.999999998102675E-1
55 79 9.999999983301037E-1
55 83 9.999999948224333E-1
55 92 4.999999807042665E-1
55 112 9.999999965885342E-1
55 123 9.999999991536607E-1
56 28 9.99999996048802E-1
56 48 9.99999992783499E-1
56 50 4.999999801823664E-1
56 51 9.99999995482823E-1
56 67 9.999999816284246E-1
56 73 9.999999935399184E-1
56 78 9.999999765463522E-1
56 85 9.999999831633184E-1
56 89 9.999999796107404E-1
56 99 4.9999997148656367E-1
56 107 9.99999985388818E-1
57 30 9.999999954879502E-1
57 38 9.999999976714143E-1
57 55 9.999999950146676E-1
57 61 9.999999946216633E-1
57 72 4.99999992311778E-1
57 79 9.999999986979181E-1
57 86 9.999999947928748E-1
57 123 9.999999982267463E-1
57 125 4.999999935412573E-1
57 129 9.999999917286457E-1
58 1 4.9999998607853735E-1
58 7 9.999999829066691E-1
58 10 9.999999978460409E-1
58 33 4.9999998773457294E-1
58 53 4.999999515500097E-1
58 80 9.999999871041112E-1
58 83 4.9999998829783787E-1
58 84 9.999999838715294E-1
58 98 9.999999904065248E-1
58 109 4.999999567714886E-1
58 116 9.999999902251703E-1
59 9 4.999998224359102E-1
59 20 9.99999804569229E-1
59 26 9.999998089913281E-1
59 52 4.999998786408783E-1
59 54 9.999998239262403E-1
59 62 4.9999980295265356E-1
59 100 9.999999400901822E-1
59 104 9.999999218751573E-1
59 119 9.999998726093866E-1
60 8 9.999999964371854E-1
60 15 4.999999744068807E-1
60 19 9.999999882892054E-1
60 24 4.9999997845799127E-1
60 27 9.999999859166105E-1
60 35 4.9999998687651664E-1
60 45 9.999999932065828E-1
60 49 4.9999997482180736E-1
60 63 9.999999914936498E-1
60 64 9.99999988809602E-1
60 105 4.9999999254108474E-1
60 121 4.999999750027189E-1
60 127 9.999999992687332E-1
60 128 9.999999861468164E-1
61 1 9.999999955655098E-1
61 18 4.999999872992596E-1
61 29 4.9999998738222773E-1
61 30 9.99999997254365E-1
61 38 4.999999943729332E-1
61 55 9.999999998102675E-1
61 57 9.999999946216633E-1
61 79 9.999999976131421E-1
61 83 9.999999938536579E-1
61 92 4.9999998289118236E-1
61 112 9.999999962441457E-1
61 123 9.999999987575086E-1
62 3 9.99999940229715E-1
62 9 9.99999982271276E-1
62 14 4.9999989480721396E-1
62 51 4.9999989098039355E-1
62 59 4.9999980295265356E-1
62 65 4.999999206282519E-1
62 76 4.9999989837479525E-1
62 78 4.999998934854038E-1
62 85 4.999999020934267E-1
62 95 4.9999988653254185E-1
63 8 4.999999893732919E-1
63 15 9.999999682406876E-1
63 24 9.999999841542176E-1
63 27 9.999999959926513E-1
63 35 9.999999951198697E-1
63 45 4.9999998550311975E-1
63 49 4.99999974778567E-1
63 60 9.999999914936498E-1
63 118 4.999999652333179E-1
63 121 9.999999744358539E-1
63 127 9.999999868364682E-1
64 8 9.99999997745295E-1
64 19 9.999999883678378E-1
64 27 4.999999805545652E-1
64 45 9.999999994535244E-1
64 60 9.99999988809602E-1
64 75 9.999999972772192E-1
64 95 9.999999920454528E-1
64 105 9.999999975555501E-1
64 121 4.999999583950692E-1
64 127 9.999999936564524E-1
64 128 9.999999998478817E-1
65 3 9.999999762296893E-1
65 9 4.999999380338975E-1
65 14 9.999999958774402E-1
65 17 9.999999887759651E-1
65 51 9.999999765251106E-1
65 62 4.999999206282519E-1
65 76 9.999999960713168E-1
65 78 9.999999928977232E-1
65 85 9.999999915556497E-1
65 95 4.999999922927301E-1
65 126 9.999999928485778E-1
66 6 9.99999997252877E-1
66 22 4.999999830380478E-1
66 25 9.999999975209717E-1
66 36 9.999999992772943E-1
66 40 9.99999998039606E-1
66 44 9.999999954577953E-1
66 82 9.999999853140326E-1
66 103 9.999999963837348E-1
66 111 9.999999870970296E-1
66 122 9.999999982485092E-1
66 124 4.999999884980348E-1
67 28 4.999999821263137E-1
67 32 9.999999694655515E-1
67 47 4.999999751713031E-1
67 48 9.999999950753836E-1
67 50 4.9999997928718437E-1
67 52 4.9999993478885807E-1
67 56 9.999999816284246E-1
67 71 4.9999995266426506E-1
67 73 9.999999699770638E-1
67 89 9.999999903253932E-1
67 99 9.999999862629259E-1
67 107 9.999999989034185E-1
67 114 9.999999891127942E-1
68 11 4.9999993353530997E-1
68 16 4.999999619906669E-1
68 23 4.999999721181044E-1
68 31 4.999999288442888E-1
68 43 4.999999823195012E-1
68 46 4.9999984948036424E-1
68 69 4.999999651178932E-1
68 87 4.999999799717388E-1
68 96 4.999998974728685E-1
68 97 9.999999720178153E-1
68 106 9.999999894642758E-1
68 111 4.99999966984745E-1
68 115 4.999999785878372E-1
69 36 4.999999877046805E-1
69 40 4.9999999110162846E-1
69 43 4.999999836870858E-1
69 68 4.999999651178932E-1
69 72 4.999999853666943E-1
69 82 9.999999968746031E-1
69 103 4.999999850519277E-1
69 111 9.999999813585305E-1
69 115 9.999999966441137E-1
69 122 4.9999998982189536E-1
69 124 9.999999993515574E-1
70 2 9.999999686056681E-1
70 12 9.999999076685762E-1
70 18 4.9999993080775157E-1
70 29 4.999999318308282E-1
70 77 9.999999706406044E-1
70 92 4.9999994087461E-1
70 108 9.999999953234878E-1
70 113 9.999999991589132E-1
70 130 9.999999729660607E-1
71 32 9.999999821200992E-1
71 34 4.999997838321961E-1
71 39 9.999998948265849E-1
71 42 9.999999828261786E-1
71 48 4.9999995211969034E-1
71 50 4.999999733340584E-1
71 67 4.9999995266426506E-1
71 89 4.999999696360854E-1
71 107 4.9999994197478315E-1
71 114 9.999999584640934E-1
72 4 9.999999884347185E-1
72 16 9.999999913218256E-1
72 23 4.999999907898092E-1
72 38 9.999999935182043E-1
72 43 4.9999998586085864E-1
72 57 4.99999992311778E-1
72 69 4.999999853666943E-1
72 86 9.999999967686071E-1
72 91 9.999999821686868E-1
72 120 4.9999999183268623E-1
72 125 4.9999999181059634E-1
72 129 9.999999958141919E-1
73 21 4.999999791473734E-1
73 28 9.99999997529441E-1
73 42 4.999999479197669E-1
73 48 9.999999892583293E-1
73 50 9.999999811399622E-1
73 51 9.999999868837822E-1
73 56 9.999999935399184E-1
73 67 9.999999699770638E-1
73 85 4.9999998625785436E-1
73 89 9.999999837502976E-1
73 107 9.999999700758959E-1
73 110 4.9999996525942E-1
73 114 4.999999780330414E-1
74 12 9.999998722096823E-1
74 37 9.999999970560377E-1
74 41 9.999998261808554E-1
74 81 4.999999211713277E-1
74 90 9.999998366943159E-1
74 94 9.999999746281947E-1
74 101 9.999999821145921E-1
74 102 9.999999301379564E-1
74 109 9.999999227322128E-1
75 8 9.999999900674807E-1
75 19 4.9999999107811505E-1
75 45 9.999999943232871E-1
75 64 9.999999972772192E-1
75 95 9.99999996869669E-1
75 105 9.999999964383061E-1
75 126 4.999999909420726E-1
75 127 4.9999999133972506E-1
75 128 9.999999982730001E-1
76 3 4.999999785472759E-1
76 14 9.999999962828808E-1
76 17 9.999999962889651E-1
76 21 4.9999997750988284E-1
76 28 9.999999771890423E-1
76 51 9.999999878802902E-1
76 62 4.9999989837479525E-1
76 65 9.999999960713168E-1
76 78 9.999999993826306E-1
76 85 9.999999974675414E-1
76 95 4.999999898634136E-1
76 126 9.999999953429844E-1
77 2 9.999999008324317E-1
77 18 9.999999597305974E-1
77 29 4.9999998029047704E-1
77 70 9.999999706406044E-1
77 84 4.999999569447033E-1
77 92 9.999999702026805E-1
77 108 9.999999572007906E-1
77 113 9.999999599198994E-1
77 130 9.999999999057365E-1
78 3 4.999999758379679E-1
78 14 9.99999992983049E-1
78 17 9.999999953102947E-1
78 21 4.999999794588579E-1
78 28 9.999999840731054E-1
78 51 9.999999923137199E-1
78 56 9.999999765463522E-1
78 62 4.999998934854038E-1
78 65 9.999999928977232E-1
78 76 9.999999993826306E-1
78 85 9.999999988518362E-1
78 126 9.999999923487194E-1
79 1 9.999999930711374E-1
79 30 9.999999989894923E-1
79 33 4.9999999347240226E-1
79 38 9.999999967155829E-1
79 55 9.999999983301037E-1
79 57 9.999999986979181E-1
79 61 9.999999976131421E-1
79 83 4.999999947285106E-1
79 86 9.999999934502777E-1
79 112 4.9999999546766316E-1
79 123 9.999999998004633E-1
79 125 4.9999999604960166E-1
79 129 9.999999922085372E-1
80 5 9.999999710409122E-1
80 7 9.999999779719569E-1
80 10 9.999999854861E-1
80 13 4.999999637267482E-1
80 33 4.9999997309212957E-1
80 53 9.99999954324128E-1
80 58 9.999999871041112E-1
80 84 4.9999997465798446E-1
80 88 4.999998673041398E-1
80 93 4.999999500335168E-1
80 98 9.999999992974635E-1
80 109 4.999999480653391E-1
80 116 9.999999944902781E-1
81 15 9.999999921229418E-1
81 21 4.999999691637393E-1
81 35 4.9999996983716033E-1
81 37 4.999999338010677E-1
81 39 4.999999200376024E-1
81 41 4.999999148321882E-1
81 49 9.999999786283379E-1
81 74 4.999999211713277E-1
81 94 9.999999399918339E-1
81 101 4.9999994964475564E-1
81 102 9.999999822337454E-1
81 110 9.99999949032743E-1
81 117 9.999999519678919E-1
81 118 9.999999990070966E-1
82 36 9.999999898173153E-1
82 40 9.999999937600721E-1
82 66 9.999999853140326E-1
82 69 9.999999968746031E-1
82 103 9.999999857923043E-1
82 111 9.999999909544979E-1
82 115 9.999999909257485E-1
82 122 9.999999924570673E-1
82 124 9.999999989389771E-1
83 1 9.999999995387312E-1
83 7 4.9999996545697956E-1
83 10 4.999999904607008E-1
83 18 4.9999998353067515E-1
83 29 4.9999998577821786E-1
83 30 4.9999999703765263E-1
83 33 9.999999924805751E-1
83 55 9.999999948224333E-1
83 58 4.9999998829783787E-1
83 61 9.999999938536579E-1
83 79 4.999999947285106E-1
83 84 4.999999864329946E-1
83 92 4.999999804176365E-1
83 98 4.999999723166661E-1
83 112 9.999999994218521E-1
83 123 4.999999953399967E-1
83 125 4.999999941190646E-1
84 1 4.999999826827286E-1
84 7 9.99999981219419E-1
84 10 9.99999973492887E-1
84 29 9.999999663861261E-1
84 58 9.999999838715294E-1
84 77 4.999999569447033E-1
84 80 4.9999997465798446E-1
84 83 4.999999864329946E-1
84 92 9.999999592326616E-1
84 98 4.9999997633123083E-1
84 109 4.999999752071263E-1
84 112 4.999999855965994E-1
84 116 9.999999703802075E-1
84 130 4.99999954049353E-1
85 3 4.9999997891644166E-1
85 9 4.999999316517447E-1
85 14 9.999999876918555E-1
85 17 9.999999895217451E-1
85 28 9.999999865208062E-1
85 51 9.999999960878909E-1
85 56 9.999999831633184E-1
85 62 4.999999020934267E-1
85 65 9.999999915556497E-1
85 73 4.9999998625785436E-1
85 76 9.999999974675414E-1
85 78 9.999999988518362E-1
85 126 9.999999860206419E-1
86 16 4.999999931491627E-1
86 30 4.9999999575519954E-1
86 38 9.999999993884473E-1
86 57 9.999999947928748E-1
86 72 9.999999967686071E-1
86 79 9.999999934502777E-1
86 120 9.999999868425873E-1
86 123 9.999999910100026E-1
86 125 9.99999992235316E-1
86 129 9.999999991259567E-1
87 4 9.999999892251673E-1
87 5 9.999999772083703E-1
87 13 4.999999679351012E-1
87 16 9.9999998805049E-1
87 23 9.999999956680959E-1
87 43 9.999999965520969E-1
87 46 4.999997681238679E-1
87 68 4.999999799717388E-1
87 91 9.999999925514858E-1
87 93 4.999999253890248E-1
87 97 4.999999614755932E-1
87 106 4.9999995443423234E-1
87 115 4.999999805710818E-1
87 120 4.99999990633098E-1
87 129 4.999999801502391E-1
88 7 4.9999985313147577E-1
88 13 4.9999985858842727E-1
88 41 4.999998681148222E-1
88 53 9.999999068357321E-1
88 80 4.999998673041398E-1
88 90 9.999998612949254E-1
88 93 4.9999991393431453E-1
88 98 4.999998540212908E-1
88 116 4.999998637308223E-1
89 28 9.999999723275048E-1
89 32 9.999999830435774E-1
89 42 4.999999673687451E-1
89 48 9.999999958177243E-1
89 50 9.999999888013459E-1
89 56 9.999999796107404E-1
89 67 9.999999903253932E-1
89 71 4.999999696360854E-1
89 73 9.999999837502976E-1
89 99 4.99999978846723E-1
89 107 9.999999849932767E-1
89 114 9.999999931029938E-1
90 37 4.99999902856565E-1
90 39 4.999999181746875E-1
90 41 9.999999800065026E-1
90 74 9.999998366943159E-1
90 88 9.999998612949254E-1
90 94 4.9999993062975373E-1
90 101 4.999998777670702E-1
90 102 4.999999047060989E-1
90 117 4.99999932164879E-1
91 4 9.999999993157819E-1
91 5 4.9999998619198355E-1
91 13 4.99999951901838E-1
91 16 9.999999977838542E-1
91 23 9.999999978420208E-1
91 43 9.99999991216832E-1
91 72 9.999999821686868E-1
91 87 9.999999925514858E-1
91 97 4.9999993386449626E-1
91 120 9.999999971470731E-1
91 125 4.999999934670887E-1
91 129 4.999999932979305E-1
92 18 9.999999990671319E-1
92 29 9.999999991439781E-1
92 55 4.999999807042665E-1
92 61 4.9999998289118236E-1
92 70 4.9999994087461E-1
92 77 9.999999702026805E-1
92 83 4.999999804176365E-1
92 84 9.999999592326616E-1
92 108 4.999999302422114E-1
92 112 4.99999984207498E-1
92 113 4.9999993056760267E-1
92 130 9.999999675687606E-1
93 5 4.9999996078333664E-1
93 10 4.999999166475196E-1
93 13 9.999999819504113E-1
93 46 4.9999986435960597E-1
93 53 9.999999180326072E-1
93 80 4.999999500335168E-1
93 87 4.999999253890248E-1
93 88 4.9999991393431453E-1
93 97 9.999998974334338E-1
93 98 4.999999471413991E-1
93 116 4.9999992809364874E-1
94 15 4.99999951317525E-1
94 37 9.999999796476623E-1
94 41 9.999998906719393E-1
94 74 9.999999746281947E-1
94 81 9.999999399918339E-1
94 90 4.9999993062975373E-1
94 101 9.9999997890537E-1
94 102 9.999999873289934E-1
94 117 9.999999129242741E-1
94 118 4.999999628221863E-1
95 8 4.999999914930723E-1
95 14 9.999999933604552E-1
95 17 9.99999985340337E-1
95 19 4.99999993141701E-1
95 45 9.999999885574612E-1
95 62 4.9999988653254185E-1
95 64 9.999999920454528E-1
95 65 4.999999922927301E-1
95 75 9.99999996869669E-1
95 76 4.999999898634136E-1
95 105 9.999999967315621E-1
95 126 9.999999933494297E-1
95 128 9.9999999290169E-1
96 11 9.999998870473618E-1
96 22 4.999998577023112E-1
96 31 9.999998974040741E-1
96 46 9.999998804870857E-1
96 68 4.999998974728685E-1
96 97 4.999999153236152E-1
96 103 4.9999980969572033E-1
96 106 4.9999993380688096E-1
96 111 4.999998311664629E-1
97 5 4.9999994904222406E-1
97 13 9.999999466026136E-1
97 23 4.999999431419557E-1
97 43 4.999999551510581E-1
97 46 4.9999991782780984E-1
97 68 9.999999720178153E-1
97 87 4.999999614755932E-1
97 91 4.9999993386449626E-1
97 93 9.999998974334338E-1
97 96 4.999999153236152E-1
97 106 9.999999605064899E-1
98 5 9.999999766477152E-1
98 7 9.999999750531955E-1
98 10 9.999999905397313E-1
98 13 4.9999996427926835E-1
98 33 4.9999997876660357E-1
98 53 4.999999712399723E-1
98 58 9.999999904065248E-1
98 80 9.999999992974635E-1
98 83 4.999999723166661E-1
98 84 4.9999997633123083E-1
98 88 4.999998540212908E-1
98 93 4.999999471413991E-1
98 109 4.9999994426194283E-1
98 116 9.999999926043809E-1
99 9 4.9999992583722824E-1
99 26 4.9999994064873965E-1
99 32 9.999999503102357E-1
99 34 4.999997913966597E-1
99 47 9.999999887360905E-1
99 48 4.9999998248995353E-1
99 52 9.999999393113824E-1
99 56 4.9999997148656367E-1
99 67 9.999999862629259E-1
99 89 4.99999978846723E-1
99 104 4.999998838067175E-1
99 107 9.999999859226163E-1
99 114 9.999999724909668E-1
99 119 4.9999991352800643E-1
100 20 9.999998406064258E-1
100 26 4.9999982924346686E-1
100 34 4.999996510834306E-1
100 47 4.999996720254781E-1
100 52 4.999997765530065E-1
100 54 9.999997909685938E-1
100 59 9.999999400901822E-1
100 104 9.999998127728865E-1
100 119 4.999998728121747E-1
101 2 4.999999314658089E-1
101 12 9.999999327424354E-1
101 15 4.99999937667102E-1
101 37 9.999999936494213E-1
101 74 9.999999821145921E-1
101 81 4.9999994964475564E-1
101 90 4.999998777670702E-1
101 94 9.9999997890537E-1
101 102 9.999999601706148E-1
101 109 4.999999396709392E-1
101 118 4.9999993917301006E-1
102 15 9.999999597239967E-1
102 37 9.999999451507041E-1
102 41 4.999999353288639E-1
102 49 4.999999609551241E-1
102 74 9.999999301379564E-1
102 81 9.999999822337454E-1
102 90 4.999999047060989E-1
102 94 9.999999873289934E-1
102 101 9.999999601706148E-1
102 117 9.999999410975287E-1
102 118 9.99999973667376E-1
103 6 9.999999926617354E-1
103 11 4.9999994508881007E-1
103 22 4.9999999002669565E-1
103 25 9.999999927717347E-1
103 31 4.999999375260663E-1
103 36 9.999999982428308E-1
103 40 9.999999946260152E-1
103 44 9.999999943370335E-1
103 66 9.999999963837348E-1
103 69 4.999999850519277E-1
103 82 9.999999857923043E-1
103 96 4.9999980969572033E-1
103 111 9.999999957571671E-1
103 122 9.999999981943908E-1
103 124 4.999999885026904E-1
104 20 9.999998937531743E-1
104 26 9.999999745924004E-1
104 34 4.9999983116377994E-1
104 47 4.9999992881129013E-1
104 52 9.999999443296975E-1
104 54 9.99999951729308E-1
104 59 9.999999218751573E-1
104 99 4.999998838067175E-1
104 100 9.999998127728865E-1
104 119 9.999999939389129E-1
105 8 9.999999938962554E-1
105 14 4.999999936626804E-1
105 17 4.9999999179578813E-1
105 19 9.999999945308825E-1
105 45 9.999999966548028E-1
105 60 4.9999999254108474E-1
105 64 9.999999975555501E-1
105 75 9.999999964383061E-1
105 95 9.999999967315621E-1
105 126 9.999999897064415E-1
105 127 9.999999896589001E-1
105 128 9.99999997217532E-1
106 11 9.999999266172441E-1
106 22 4.999999515783479E-1
106 31 9.999999209075223E-1
106 43 4.9999995976203226E-1
106 46 4.999998676473798E-1
106 68 9.999999894642758E-1
106 87 4.9999995443423234E-1
106 96 4.9999993380688096E-1
106 97 9.999999605064899E-1
106 111 4.999999662337767E-1
106 115 4.9999996510831446E-1
107 9 4.999999268007763E-1
107 26 4.999998953609893E-1
107 28 4.999999838156459E-1
107 32 4.999999784015523E-1
107 47 4.999999758066799E-1
107 48 9.999999940157049E-1
107 51 4.9999998407983787E-1
107 52 4.999999373733348E-1
107 56 9.99999985388818E-1
107 67 9.999999989034185E-1
107 71 4.9999994197478315E-1
107 73 9.999999700758959E-1
107 89 9.999999849932767E-1
107 99 9.999999859226163E-1
107 114 9.999999811071969E-1
108 2 9.999999870680766E-1
108 12 9.999999438519919E-1
108 29 4.999999215609327E-1
108 70 9.999999953234878E-1
108 77 9.999999572007906E-1
108 92 4.999999302422114E-1
108 109 4.9999992753356315E-1
108 113 9.999999963569473E-1
108 130 9.999999590420768E-1
109 2 4.9999992185311887E-1
109 7 9.999999689564644E-1
109 10 4.9999994205001524E-1
109 12 4.9999992291941037E-1
109 37 9.999999113979452E-1
109 58 4.999999567714886E-1
109 74 9.999999227322128E-1
109 80 4.999999480653391E-1
109 84 4.999999752071263E-1
109 98 4.9999994426194283E-1
109 101 4.999999396709392E-1
109 108 4.9999992753356315E-1
109 116 9.999999381741038E-1
110 15 4.999999652794213E-1
110 21 9.999999610551452E-1
110 39 9.999999452751643E-1
110 41 4.999999231285693E-1
110 42 4.9999996125382773E-1
110 49 9.999999685555152E-1
110 50 4.9999997576799177E-1
110 73 4.9999996525942E-1
110 81 9.99999949032743E-1
110 117 9.999999730877628E-1
110 118 9.999999606128838E-1
111 6 4.999999887667237E-1
111 11 4.9999994794902713E-1
111 22 4.9999998594015843E-1
111 25 4.9999998891072794E-1
111 31 4.999999407619248E-1
111 36 9.999999923697828E-1
111 40 9.999999898909568E-1
111 44 4.999999901994427E-1
111 66 9.999999870970296E-1
111 68 4.99999966984745E-1
111 69 9.999999813585305E-1
111 82 9.999999909544979E-1
111 96 4.999998311664629E-1
111 103 9.999999957571671E-1
111 106 4.999999662337767E-1
111 115 9.999999807387966E-1
111 122 9.99999994339268E-1
111 124 9.999999850641186E-1
112 1 9.999999989990197E-1
112 10 4.999999870079762E-1
112 18 4.999999872524995E-1
112 29 4.9999998895679837E-1
112 30 9.999999943007407E-1
112 33 9.99999988752531E-1
112 55 9.999999965885342E-1
112 61 9.999999962441457E-1
112 79 4.9999999546766316E-1
112 83 9.999999994218521E-1
112 84 4.999999855965994E-1
112 92 4.99999984207498E-1
112 123 9.999999925577946E-1
112 125 4.9999999272417656E-1
113 2 9.999999750934435E-1
113 12 9.999999178537603E-1
113 18 4.999999196508917E-1
113 29 4.999999208610633E-1
113 70 9.999999991589132E-1
113 77 9.999999599198994E-1
113 92 4.9999993056760267E-1
113 108 9.999999963569473E-1
113 130 9.999999626104438E-1
114 32 9.999999950401303E-1
114 42 4.9999996738324665E-1
114 47 4.9999996552526904E-1
114 48 9.999999843741044E-1
114 50 9.999999732446534E-1
114 67 9.999999891127942E-1
114 71 9.999999584640934E-1
114 73 4.999999780330414E-1
114 89 9.999999931029938E-1
114 99 9.999999724909668E-1
114 107 9.999999811071969E-1
115 16 4.9999998520665995E-1
115 23 4.999999862494966E-1
115 40 4.9999998512945926E-1
115 43 9.999999806740818E-1
115 68 4.999999785878372E-1
115 69 9.999999966441137E-1
115 82 9.999999909257485E-1
115 87 4.999999805710818E-1
115 106 4.9999996510831446E-1
115 111 9.999999807387966E-1
115 122 4.9999998515432187E-1
115 124 9.999999940495317E-1
116 5 4.999999714985159E-1
116 7 9.999999944913293E-1
116 10 9.999999825169407E-1
116 53 9.999999527116854E-1
116 58 9.999999902251703E-1
116 80 9.999999944902781E-1
116 84 9.999999703802075E-1
116 88 4.999998637308223E-1
116 93 4.9999992809364874E-1
116 98 9.999999926043809E-1
116 109 9.999999381741038E-1
117 15 4.999999554472957E-1
117 39 9.999999627629254E-1
117 41 9.999999449104655E-1
117 49 4.9999996252880546E-1
117 81 9.999999519678919E-1
117 90 4.99999932164879E-1
117 94 9.999999129242741E-1
117 102 9.999999410975287E-1
117 110 9.999999730877628E-1
117 118 9.999999554380278E-1
118 15 9.999999923476033E-1
118 21 4.9999997597257306E-1
118 35 4.999999685140227E-1
118 37 4.999999222265502E-1
118 39 4.99999926211802E-1
118 41 4.999999128297488E-1
118 49 9.999999860642732E-1
118 63 4.999999652333179E-1
118 81 9.999999990070966E-1
118 94 4.999999628221863E-1
118 101 4.9999993917301006E-1
118 102 9.99999973667376E-1
118 110 9.999999606128838E-1
118 117 9.999999554380278E-1
119 9 4.9999988532753725E-1
119 20 9.999998846524218E-1
119 26 9.999999932881389E-1
119 34 4.9999986015684783E-1
119 47 9.999999039459058E-1
119 52 9.999999708807231E-1
119 54 9.999999556390274E-1
119 59 9.999998726093866E-1
119 99 4.9999991352800643E-1
119 100 4.999998728121747E-1
119 104 9.999999939389129E-1
120 4 9.999999970422406E-1
120 5 4.9999998453576644E-1
120 16 9.999999942729871E-1
120 23 9.99999990492229E-1
120 33 9.999999934083477E-1
120 38 4.9999999212567997E-1
120 43 4.999999893236463E-1
120 72 4.9999999183268623E-1
120 86 9.999999868425873E-1
120 87 4.99999990633098E-1
120 91 9.999999971470731E-1
120 125 9.99999996081934E-1
120 129 9.999999927482459E-1
121 8 4.9999996876134956E-1
121 24 9.99999996145142E-1
121 27 9.999999887818217E-1
121 35 9.99999980411189E-1
121 45 4.9999996316892026E-1
121 60 4.999999750027189E-1
121 63 9.999999744358539E-1
121 64 4.999999583950692E-1
121 127 4.99999973081825E-1
122 6 9.999999919590107E-1
122 11 4.999999307456176E-1
122 22 4.9999998318570693E-1
122 25 9.99999992320255E-1
122 31 4.999999222959304E-1
122 36 9.999999997543959E-1
122 40 9.999999990043861E-1
122 44 9.999999911434092E-1
122 66 9.999999982485092E-1
122 69 4.9999998982189536E-1
122 82 9.999999924570673E-1
122 103 9.999999981943908E-1
122 111 9.99999994339268E-1
122 115 4.9999998515432187E-1
122 124 4.9999999291027786E-1
123 1 9.999999938169873E-1
123 18 4.999999815315929E-1
123 29 4.999999813202037E-1
123 30 9.999999987732756E-1
123 38 9.999999949730376E-1
123 55 9.999999991536607E-1
123 57 9.999999982267463E-1
123 61 9.999999987575086E-1
123 79 9.999999998004633E-1
123 83 4.999999953399967E-1
123 86 9.999999910100026E-1
123 112 9.999999925577946E-1
123 125 4.999999951569174E-1
124 36 4.9999999118932004E-1
124 40 9.999999882906089E-1
124 66 4.999999884980348E-1
124 69 9.999999993515574E-1
124 82 9.999999989389771E-1
124 103 4.999999885026904E-1
124 111 9.999999850641186E-1
124 115 9.999999940495317E-1
124 122 4.9999999291027786E-1
125 1 9.999999919193154E-1
125 4 4.999999942745347E-1
125 23 4.9999998807392854E-1
125 30 9.999999955359257E-1
125 33 9.99999997905924E-1
125 38 9.999999925533068E-1
125 57 4.999999935412573E-1
125 72 4.9999999181059634E-1
125 79 4.9999999604960166E-1
125 83 4.999999941190646E-1
125 86 9.99999992235316E-1
125 91 4.999999934670887E-1
125 112 4.9999999272417656E-1
125 120 9.99999996081934E-1
125 123 4.999999951569174E-1
125 129 9.999999958212374E-1
126 3 4.999999719216789E-1
126 14 9.999999995487933E-1
126 17 9.999999982154345E-1
126 19 9.999999887143237E-1
126 21 4.9999998016314867E-1
126 65 9.999999928485778E-1
126 75 4.999999909420726E-1
126 76 9.999999953429844E-1
126 78 9.999999923487194E-1
126 85 9.999999860206419E-1
126 95 9.999999933494297E-1
126 105 9.999999897064415E-1
127 8 9.999999989236728E-1
127 19 9.99999989234136E-1
127 24 4.999999752089955E-1
127 27 9.999999829900869E-1
127 35 4.999999829907953E-1
127 45 9.99999996830026E-1
127 60 9.999999992687332E-1
127 63 9.999999868364682E-1
127 64 9.999999936564524E-1
127 75 4.9999999133972506E-1
127 105 9.999999896589001E-1
127 121 4.99999973081825E-1
127 128 9.999999916598213E-1
128 8 9.999999965419903E-1
128 19 9.999999863360125E-1
128 45 9.999999987517069E-1
128 60 9.999999861468164E-1
128 64 9.999999998478817E-1
128 75 9.999999982730001E-1
128 95 9.9999999290169E-1
128 105 9.99999997217532E-1
128 127 9.999999916598213E-1
129 4 9.999999908874924E-1
129 16 4.9999999537442763E-1
129 23 4.999999902293959E-1
129 30 4.9999999604289685E-1
129 33 4.9999999390544747E-1
129 38 9.99999998042822E-1
129 57 9.999999917286457E-1
129 72 9.999999958141919E-1
129 79 9.999999922085372E-1
129 86 9.999999991259567E-1
129 87 4.999999801502391E-1
129 91 4.999999932979305E-1
129 120 9.999999927482459E-1
129 125 9.999999958212374E-1
130 2 9.999999029120518E-1
130 18 4.9999997842755034E-1
130 29 4.9999997869462204E-1
130 70 9.999999729660607E-1
130 77 9.999999999057365E-1
130 84 4.99999954049353E-1
130 92 9.999999675687606E-1
130 108 9.999999590420768E-1
130 113 9.999999626104438E-1
