%%MatrixMarket matrix coordinate real general
%
130 130 846
1 30 9.99999996865943E-1
1 33 4.9999999717689236E-1
1 55 9.999999967109428E-1
1 61 4.999999977827549E-1
1 83 9.999999995387312E-1
1 112 9.999999989990197E-1
2 12 9.999999832040305E-1
2 70 9.999999686056681E-1
2 108 9.999999870680766E-1
2 113 9.999999750934435E-1
2 130 4.999999514560259E-1
3 9 9.999999562526061E-1
3 14 4.999999767110416E-1
3 62 4.999999701148575E-1
3 65 4.9999998811484464E-1
3 76 4.999999785472759E-1
3 85 4.9999997891644166E-1
4 16 9.999999994213816E-1
4 23 9.999999977066172E-1
4 43 4.999999953507876E-1
4 72 4.9999999421735924E-1
4 87 4.9999999461258365E-1
4 91 9.999999993157819E-1
4 120 9.999999970422406E-1
4 129 4.999999954437462E-1
5 13 9.999999716036506E-1
5 80 4.999999855204561E-1
5 87 4.9999998860418515E-1
5 91 4.9999998619198355E-1
5 93 4.9999996078333664E-1
5 98 9.999999766477152E-1
6 22 4.9999998627405196E-1
6 25 9.999999999899093E-1
6 36 4.999999972530854E-1
6 44 9.999999990151305E-1
6 66 9.99999997252877E-1
6 103 4.999999963308677E-1
7 53 4.9999996941662517E-1
7 58 4.9999999145333457E-1
7 80 9.999999779719569E-1
7 84 9.99999981219419E-1
7 98 4.9999998752659774E-1
7 109 4.999999844782322E-1
7 116 9.999999944913293E-1
8 19 4.9999999470530265E-1
8 45 9.999999993939508E-1
8 60 9.999999964371854E-1
8 64 9.99999997745295E-1
8 127 9.999999989236728E-1
8 128 9.999999965419903E-1
9 3 9.999999562526061E-1
9 47 4.9999992988626335E-1
9 62 9.99999982271276E-1
9 65 4.999999380338975E-1
9 85 4.999999316517447E-1
10 33 4.999999929305293E-1
10 58 9.999999978460409E-1
10 80 9.999999854861E-1
10 84 4.999999867464435E-1
10 98 9.999999905397313E-1
10 116 9.999999825169407E-1
11 22 4.999999772973133E-1
11 31 9.999999995118052E-1
11 96 4.999999435236809E-1
11 103 4.9999994508881007E-1
11 106 9.999999266172441E-1
11 111 4.9999994794902713E-1
12 2 9.999999832040305E-1
12 70 4.999999538342881E-1
12 101 9.999999327424354E-1
12 108 4.9999997192599593E-1
12 113 4.9999995892688015E-1
13 5 9.999999716036506E-1
13 46 4.999998556593416E-1
13 87 4.999999679351012E-1
13 93 9.999999819504113E-1
13 97 9.999999466026136E-1
13 98 4.9999996427926835E-1
14 3 4.999999767110416E-1
14 17 9.999999967852502E-1
14 65 9.999999958774402E-1
14 76 9.999999962828808E-1
14 78 4.999999964915245E-1
14 95 9.999999933604552E-1
14 126 9.999999995487933E-1
15 35 4.999999865461138E-1
15 49 9.999999861444693E-1
15 63 4.999999841203438E-1
15 81 9.999999921229418E-1
15 102 4.9999997986199834E-1
15 118 9.999999923476033E-1
16 4 9.999999994213816E-1
16 23 9.999999979781978E-1
16 43 9.999999922287917E-1
16 72 4.999999956609128E-1
16 87 4.99999994025245E-1
16 91 9.999999977838542E-1
16 120 9.999999942729871E-1
17 14 9.999999967852502E-1
17 21 4.999999865844077E-1
17 76 9.999999962889651E-1
17 78 9.999999953102947E-1
17 85 9.999999895217451E-1
17 126 9.999999982154345E-1
18 29 9.999999992357813E-1
18 55 4.9999998528894757E-1
18 61 4.999999872992596E-1
18 92 9.999999990671319E-1
18 112 4.999999872524995E-1
19 8 4.9999999470530265E-1
19 21 4.9999998838370907E-1
19 45 4.999999950698166E-1
19 105 4.9999999726544125E-1
19 126 4.9999999435716186E-1
19 127 4.99999994617068E-1
20 26 4.999999273954477E-1
20 34 4.9999990356136853E-1
20 54 9.999999797462488E-1
20 100 9.999998406064258E-1
20 104 4.9999994687658716E-1
20 119 4.999999423262109E-1
21 17 4.999999865844077E-1
21 19 4.9999998838370907E-1
21 28 4.9999998076228414E-1
21 49 9.999999894785018E-1
21 110 9.999999610551452E-1
22 6 4.9999998627405196E-1
22 11 4.999999772973133E-1
22 25 4.999999858921652E-1
22 31 4.9999997250343886E-1
22 44 4.999999909785039E-1
22 103 4.9999999002669565E-1
22 111 4.9999998594015843E-1
23 4 9.999999977066172E-1
23 16 9.999999979781978E-1
23 43 9.999999976038624E-1
23 87 9.999999956680959E-1
23 91 9.999999978420208E-1
24 27 9.999999912075973E-1
24 35 9.999999927807856E-1
24 60 4.9999997845799127E-1
24 63 9.999999841542176E-1
24 121 9.99999996145142E-1
25 6 9.999999999899093E-1
25 22 4.999999858921652E-1
25 36 9.999999948114284E-1
25 44 9.9999999885781E-1
25 66 9.999999975209717E-1
25 103 4.9999999638586734E-1
26 20 4.999999273954477E-1
26 34 4.999998792269665E-1
26 47 9.999999430562961E-1
26 52 9.99999987978091E-1
26 54 9.999999419392903E-1
26 59 4.9999990449566406E-1
26 104 9.999999745924004E-1
26 119 9.999999932881389E-1
27 24 9.999999912075973E-1
27 35 9.999999917481202E-1
27 60 4.999999929583053E-1
27 63 9.999999959926513E-1
27 121 9.999999887818217E-1
28 21 4.9999998076228414E-1
28 48 4.999999920930553E-1
28 51 9.999999953387425E-1
28 56 9.99999996048802E-1
28 73 9.99999997529441E-1
28 85 4.999999932604031E-1
29 18 9.999999992357813E-1
29 61 4.9999998738222773E-1
29 77 4.9999998029047704E-1
29 83 4.9999998577821786E-1
29 92 9.999999991439781E-1
29 112 4.9999998895679837E-1
30 1 9.99999996865943E-1
30 33 4.9999999645301957E-1
30 55 9.999999984803272E-1
30 57 4.999999977439751E-1
30 61 9.99999997254365E-1
30 79 9.999999989894923E-1
30 83 4.9999999703765263E-1
30 112 4.9999999715037036E-1
30 123 9.999999987732756E-1
30 125 4.9999999776796283E-1
31 11 9.999999995118052E-1
31 22 4.9999997250343886E-1
31 96 9.999998974040741E-1
31 106 4.9999996045376116E-1
31 111 4.999999407619248E-1
32 42 4.999999796084488E-1
32 50 9.999999716573619E-1
32 67 4.9999998473277574E-1
32 71 9.999999821200992E-1
32 89 4.999999915217887E-1
32 114 9.999999950401303E-1
33 1 4.9999999717689236E-1
33 10 4.999999929305293E-1
33 30 4.9999999645301957E-1
33 83 4.9999999624028757E-1
33 120 9.999999934083477E-1
33 125 9.99999997905924E-1
34 20 4.9999990356136853E-1
34 26 4.999998792269665E-1
34 52 4.9999984488964216E-1
34 54 4.9999991963347135E-1
34 119 4.9999986015684783E-1
35 15 4.999999865461138E-1
35 24 9.999999927807856E-1
35 27 9.999999917481202E-1
35 60 4.9999998687651664E-1
35 63 9.999999951198697E-1
35 121 9.99999980411189E-1
36 6 4.999999972530854E-1
36 25 9.999999948114284E-1
36 40 9.999999988212653E-1
36 44 4.99999996775258E-1
36 66 9.999999992772943E-1
36 103 9.999999982428308E-1
36 111 4.999999961848914E-1
36 122 9.999999997543959E-1
37 74 9.999999970560377E-1
37 94 9.999999796476623E-1
37 101 9.999999936494213E-1
37 102 4.9999997257535206E-1
37 109 4.999999556989726E-1
38 57 9.999999976714143E-1
38 72 4.9999999675910217E-1
38 79 4.9999999835779146E-1
38 86 9.999999993884473E-1
38 123 4.999999974865188E-1
38 125 4.999999962766534E-1
38 129 9.99999998042822E-1
39 41 9.999999276713957E-1
39 42 9.999999607811665E-1
39 50 4.999999519114186E-1
39 110 4.9999997263758217E-1
39 117 9.999999627629254E-1
40 36 9.999999988212653E-1
40 66 9.99999998039606E-1
40 69 4.9999999110162846E-1
40 82 9.999999937600721E-1
40 103 9.999999946260152E-1
40 111 4.999999949454784E-1
40 122 9.999999990043861E-1
40 124 4.9999999414530444E-1
41 39 9.999999276713957E-1
41 88 4.999998681148222E-1
41 90 9.999999800065026E-1
41 94 4.9999994533596964E-1
41 102 4.999999353288639E-1
41 117 9.999999449104655E-1
42 32 4.999999796084488E-1
42 39 9.999999607811665E-1
42 50 4.999999828055002E-1
42 71 9.999999828261786E-1
42 114 4.9999996738324665E-1
43 4 4.999999953507876E-1
43 16 9.999999922287917E-1
43 23 9.999999976038624E-1
43 68 4.999999823195012E-1
43 87 9.999999965520969E-1
43 91 4.99999995608416E-1
43 97 4.999999551510581E-1
43 115 4.999999903370409E-1
44 6 9.999999990151305E-1
44 22 4.999999909785039E-1
44 25 9.9999999885781E-1
44 36 4.99999996775258E-1
44 66 4.9999999772889764E-1
44 103 4.9999999716851673E-1
45 8 9.999999993939508E-1
45 19 4.999999950698166E-1
45 60 4.999999966032914E-1
45 64 9.999999994535244E-1
45 75 4.9999999716164356E-1
45 105 9.999999966548028E-1
45 127 9.99999996830026E-1
45 128 9.999999987517069E-1
46 13 4.999998556593416E-1
46 93 4.9999986435960597E-1
46 96 9.999998804870857E-1
46 97 4.9999991782780984E-1
46 106 4.999998676473798E-1
47 9 4.9999992988626335E-1
47 26 9.999999430562961E-1
47 52 9.999999800040585E-1
47 67 4.999999751713031E-1
47 99 9.999999887360905E-1
47 107 4.999999758066799E-1
47 119 4.999999519729529E-1
48 28 4.999999920930553E-1
48 50 4.999999883410252E-1
48 56 9.99999992783499E-1
48 67 9.999999950753836E-1
48 73 9.999999892583293E-1
48 89 9.999999958177243E-1
48 99 4.9999998248995353E-1
48 107 9.999999940157049E-1
48 114 4.999999921870522E-1
49 15 9.999999861444693E-1
49 21 9.999999894785018E-1
49 81 9.999999786283379E-1
49 110 9.999999685555152E-1
49 118 9.999999860642732E-1
50 32 9.999999716573619E-1
50 39 4.999999519114186E-1
50 42 4.999999828055002E-1
50 48 4.999999883410252E-1
50 71 4.999999733340584E-1
50 73 4.999999905699811E-1
50 89 9.999999888013459E-1
50 110 4.9999997576799177E-1
50 114 4.999999866223267E-1
51 28 9.999999953387425E-1
51 56 9.99999995482823E-1
51 73 4.999999934418911E-1
51 76 4.999999939401451E-1
51 78 4.9999999615685997E-1
51 85 9.999999960878909E-1
52 26 9.99999987978091E-1
52 34 4.9999984488964216E-1
52 47 9.999999800040585E-1
52 54 4.999999386094384E-1
52 99 4.999999696556912E-1
52 104 9.999999443296975E-1
52 119 9.999999708807231E-1
53 7 4.9999996941662517E-1
53 80 4.99999977162064E-1
53 88 4.9999995341786607E-1
53 93 9.999999180326072E-1
53 98 4.999999712399723E-1
53 116 4.999999763558427E-1
54 20 9.999999797462488E-1
54 26 9.999999419392903E-1
54 34 4.9999991963347135E-1
54 52 4.999999386094384E-1
54 59 4.9999991196312016E-1
54 100 4.999998954842969E-1
54 104 9.99999951729308E-1
54 119 9.999999556390274E-1
55 1 9.999999967109428E-1
55 18 4.9999998528894757E-1
55 30 9.999999984803272E-1
55 57 4.999999975073338E-1
55 61 9.999999998102675E-1
55 79 9.999999983301037E-1
55 83 4.9999999741121665E-1
55 112 4.999999982942671E-1
55 123 9.999999991536607E-1
56 28 9.99999996048802E-1
56 48 9.99999992783499E-1
56 51 9.99999995482823E-1
56 73 9.999999935399184E-1
56 107 9.99999985388818E-1
57 30 4.999999977439751E-1
57 38 9.999999976714143E-1
57 55 4.999999975073338E-1
57 79 9.999999986979181E-1
57 86 4.999999973964374E-1
57 123 9.999999982267463E-1
58 7 4.9999999145333457E-1
58 10 9.999999978460409E-1
58 80 9.999999871041112E-1
58 84 9.999999838715294E-1
58 98 9.999999904065248E-1
58 109 4.999999567714886E-1
58 116 9.999999902251703E-1
59 26 4.9999990449566406E-1
59 54 4.9999991196312016E-1
59 100 9.999999400901822E-1
59 104 9.999999218751573E-1
59 119 4.999999363046933E-1
60 8 9.999999964371854E-1
60 24 4.9999997845799127E-1
60 27 4.999999929583053E-1
60 35 4.9999998687651664E-1
60 45 4.999999966032914E-1
60 63 9.999999914936498E-1
60 64 4.99999994404801E-1
60 121 4.999999750027189E-1
60 127 9.999999992687332E-1
61 1 4.999999977827549E-1
61 18 4.999999872992596E-1
61 29 4.9999998738222773E-1
61 30 9.99999997254365E-1
61 55 9.999999998102675E-1
61 79 9.999999976131421E-1
61 83 4.9999999692682895E-1
61 112 9.999999962441457E-1
61 123 9.999999987575086E-1
62 3 4.999999701148575E-1
62 9 9.99999982271276E-1
62 65 4.999999206282519E-1
62 76 4.9999989837479525E-1
62 85 4.999999020934267E-1
63 15 4.999999841203438E-1
63 24 9.999999841542176E-1
63 27 9.999999959926513E-1
63 35 9.999999951198697E-1
63 60 9.999999914936498E-1
63 121 4.9999998721792693E-1
63 127 4.999999934182341E-1
64 8 9.99999997745295E-1
64 45 9.999999994535244E-1
64 60 4.99999994404801E-1
64 75 9.999999972772192E-1
64 105 9.999999975555501E-1
64 127 4.999999968282262E-1
64 128 9.999999998478817E-1
65 3 4.9999998811484464E-1
65 9 4.999999380338975E-1
65 14 9.999999958774402E-1
65 62 4.999999206282519E-1
65 76 9.999999960713168E-1
65 78 9.999999928977232E-1
65 85 9.999999915556497E-1
65 126 9.999999928485778E-1
66 6 9.99999997252877E-1
66 25 9.999999975209717E-1
66 36 9.999999992772943E-1
66 40 9.99999998039606E-1
66 44 4.9999999772889764E-1
66 103 4.999999981918674E-1
66 122 9.999999982485092E-1
67 32 4.9999998473277574E-1
67 47 4.999999751713031E-1
67 48 9.999999950753836E-1
67 89 9.999999903253932E-1
67 99 9.999999862629259E-1
67 107 9.999999989034185E-1
67 114 9.999999891127942E-1
68 43 4.999999823195012E-1
68 87 4.999999799717388E-1
68 97 9.999999720178153E-1
68 106 9.999999894642758E-1
68 115 4.999999785878372E-1
69 40 4.9999999110162846E-1
69 82 9.999999968746031E-1
69 111 4.9999999067926526E-1
69 115 9.999999966441137E-1
69 124 9.999999993515574E-1
70 2 9.999999686056681E-1
70 12 4.999999538342881E-1
70 77 9.999999706406044E-1
70 108 9.999999953234878E-1
70 113 9.999999991589132E-1
70 130 9.999999729660607E-1
71 32 9.999999821200992E-1
71 42 9.999999828261786E-1
71 50 4.999999733340584E-1
71 89 4.999999696360854E-1
71 114 4.999999792320467E-1
72 4 4.9999999421735924E-1
72 16 4.999999956609128E-1
72 38 4.9999999675910217E-1
72 86 9.999999967686071E-1
72 129 9.999999958141919E-1
73 28 9.99999997529441E-1
73 48 9.999999892583293E-1
73 50 4.999999905699811E-1
73 51 4.999999934418911E-1
73 56 9.999999935399184E-1
73 89 4.999999918751488E-1
74 37 9.999999970560377E-1
74 90 4.9999991834715796E-1
74 94 9.999999746281947E-1
74 101 9.999999821145921E-1
74 102 4.999999650689782E-1
74 109 9.999999227322128E-1
75 45 4.9999999716164356E-1
75 64 9.999999972772192E-1
75 95 9.99999996869669E-1
75 105 9.999999964383061E-1
75 128 9.999999982730001E-1
76 3 4.999999785472759E-1
76 14 9.999999962828808E-1
76 17 9.999999962889651E-1
76 51 4.999999939401451E-1
76 62 4.9999989837479525E-1
76 65 9.999999960713168E-1
76 78 9.999999993826306E-1
76 85 9.999999974675414E-1
76 126 4.999999976714922E-1
77 29 4.9999998029047704E-1
77 70 9.999999706406044E-1
77 92 9.999999702026805E-1
77 108 4.999999786003953E-1
77 113 9.999999599198994E-1
77 130 9.999999999057365E-1
78 14 4.999999964915245E-1
78 17 9.999999953102947E-1
78 51 4.9999999615685997E-1
78 65 9.999999928977232E-1
78 76 9.999999993826306E-1
78 85 9.999999988518362E-1
79 30 9.999999989894923E-1
79 38 4.9999999835779146E-1
79 55 9.999999983301037E-1
79 57 9.999999986979181E-1
79 61 9.999999976131421E-1
79 86 4.9999999672513884E-1
79 123 9.999999998004633E-1
80 5 4.999999855204561E-1
80 7 9.999999779719569E-1
80 10 9.999999854861E-1
80 53 4.99999977162064E-1
80 58 9.999999871041112E-1
80 88 4.999998673041398E-1
80 93 4.999999500335168E-1
80 98 9.999999992974635E-1
80 116 9.999999944902781E-1
81 15 9.999999921229418E-1
81 49 9.999999786283379E-1
81 94 4.9999996999591695E-1
81 102 9.999999822337454E-1
81 117 9.999999519678919E-1
81 118 9.999999990070966E-1
82 40 9.999999937600721E-1
82 69 9.999999968746031E-1
82 111 9.999999909544979E-1
82 115 4.9999999546287427E-1
82 122 4.9999999622853364E-1
82 124 9.999999989389771E-1
83 1 9.999999995387312E-1
83 29 4.9999998577821786E-1
83 30 4.9999999703765263E-1
83 33 4.9999999624028757E-1
83 55 4.9999999741121665E-1
83 61 4.9999999692682895E-1
83 84 4.999999864329946E-1
83 112 9.999999994218521E-1
84 7 9.99999981219419E-1
84 10 4.999999867464435E-1
84 58 9.999999838715294E-1
84 83 4.999999864329946E-1
84 109 4.999999752071263E-1
84 112 4.999999855965994E-1
85 3 4.9999997891644166E-1
85 9 4.999999316517447E-1
85 17 9.999999895217451E-1
85 28 4.999999932604031E-1
85 51 9.999999960878909E-1
85 62 4.999999020934267E-1
85 65 9.999999915556497E-1
85 76 9.999999974675414E-1
85 78 9.999999988518362E-1
86 38 9.999999993884473E-1
86 57 4.999999973964374E-1
86 72 9.999999967686071E-1
86 79 4.9999999672513884E-1
86 129 9.999999991259567E-1
87 4 4.9999999461258365E-1
87 5 4.9999998860418515E-1
87 13 4.999999679351012E-1
87 16 4.99999994025245E-1
87 23 9.999999956680959E-1
87 43 9.999999965520969E-1
87 68 4.999999799717388E-1
87 91 9.999999925514858E-1
87 97 4.999999614755932E-1
88 41 4.999998681148222E-1
88 53 4.9999995341786607E-1
88 80 4.999998673041398E-1
88 90 9.999998612949254E-1
88 93 4.9999991393431453E-1
89 32 4.999999915217887E-1
89 48 9.999999958177243E-1
89 50 9.999999888013459E-1
89 67 9.999999903253932E-1
89 71 4.999999696360854E-1
89 73 4.999999918751488E-1
89 107 9.999999849932767E-1
89 114 9.999999931029938E-1
90 41 9.999999800065026E-1
90 74 4.9999991834715796E-1
90 88 9.999998612949254E-1
90 94 4.9999993062975373E-1
90 117 4.99999932164879E-1
91 4 9.999999993157819E-1
91 5 4.9999998619198355E-1
91 16 9.999999977838542E-1
91 23 9.999999978420208E-1
91 43 4.99999995608416E-1
91 87 9.999999925514858E-1
91 120 9.999999971470731E-1
92 18 9.999999990671319E-1
92 29 9.999999991439781E-1
92 77 9.999999702026805E-1
92 112 4.99999984207498E-1
92 130 9.999999675687606E-1
93 5 4.9999996078333664E-1
93 13 9.999999819504113E-1
93 46 4.9999986435960597E-1
93 53 9.999999180326072E-1
93 80 4.999999500335168E-1
93 88 4.9999991393431453E-1
93 97 4.999999487167169E-1
94 37 9.999999796476623E-1
94 41 4.9999994533596964E-1
94 74 9.999999746281947E-1
94 81 4.9999996999591695E-1
94 90 4.9999993062975373E-1
94 101 9.9999997890537E-1
94 102 9.999999873289934E-1
95 14 9.999999933604552E-1
95 75 9.99999996869669E-1
95 105 9.999999967315621E-1
95 126 9.999999933494297E-1
95 128 4.99999996450845E-1
96 11 4.999999435236809E-1
96 31 9.999998974040741E-1
96 46 9.999998804870857E-1
96 97 4.999999153236152E-1
96 106 4.9999993380688096E-1
97 13 9.999999466026136E-1
97 43 4.999999551510581E-1
97 46 4.9999991782780984E-1
97 68 9.999999720178153E-1
97 87 4.999999614755932E-1
97 93 4.999999487167169E-1
97 96 4.999999153236152E-1
97 106 9.999999605064899E-1
98 5 9.999999766477152E-1
98 7 4.9999998752659774E-1
98 10 9.999999905397313E-1
98 13 4.9999996427926835E-1
98 53 4.999999712399723E-1
98 58 9.999999904065248E-1
98 80 9.999999992974635E-1
98 116 9.999999926043809E-1
99 47 9.999999887360905E-1
99 48 4.9999998248995353E-1
99 52 4.999999696556912E-1
99 67 9.999999862629259E-1
99 107 9.999999859226163E-1
99 114 4.999999862454834E-1
100 20 9.999998406064258E-1
100 54 4.999998954842969E-1
100 59 9.999999400901822E-1
100 104 4.9999990638644326E-1
100 119 4.999998728121747E-1
101 12 9.999999327424354E-1
101 37 9.999999936494213E-1
101 74 9.999999821145921E-1
101 94 9.9999997890537E-1
101 102 9.999999601706148E-1
102 15 4.9999997986199834E-1
102 37 4.9999997257535206E-1
102 41 4.999999353288639E-1
102 74 4.999999650689782E-1
102 81 9.999999822337454E-1
102 94 9.999999873289934E-1
102 101 9.999999601706148E-1
102 118 9.99999973667376E-1
103 6 4.999999963308677E-1
103 11 4.9999994508881007E-1
103 22 4.9999999002669565E-1
103 25 4.9999999638586734E-1
103 36 9.999999982428308E-1
103 40 9.999999946260152E-1
103 44 4.9999999716851673E-1
103 66 4.999999981918674E-1
103 111 9.999999957571671E-1
103 122 9.999999981943908E-1
104 20 4.9999994687658716E-1
104 26 9.999999745924004E-1
104 52 9.999999443296975E-1
104 54 9.99999951729308E-1
104 59 9.999999218751573E-1
104 100 4.9999990638644326E-1
104 119 9.999999939389129E-1
105 19 4.9999999726544125E-1
105 45 9.999999966548028E-1
105 64 9.999999975555501E-1
105 75 9.999999964383061E-1
105 95 9.999999967315621E-1
105 128 9.99999997217532E-1
106 11 9.999999266172441E-1
106 31 4.9999996045376116E-1
106 46 4.999998676473798E-1
106 68 9.999999894642758E-1
106 96 4.9999993380688096E-1
106 97 9.999999605064899E-1
106 111 4.999999662337767E-1
106 115 4.9999996510831446E-1
107 47 4.999999758066799E-1
107 48 9.999999940157049E-1
107 56 9.99999985388818E-1
107 67 9.999999989034185E-1
107 89 9.999999849932767E-1
107 99 9.999999859226163E-1
107 114 4.9999999055359845E-1
108 2 9.999999870680766E-1
108 12 4.9999997192599593E-1
108 70 9.999999953234878E-1
108 77 4.999999786003953E-1
108 113 9.999999963569473E-1
108 130 9.999999590420768E-1
109 7 4.999999844782322E-1
109 37 4.999999556989726E-1
109 58 4.999999567714886E-1
109 74 9.999999227322128E-1
109 84 4.999999752071263E-1
109 116 4.999999690870519E-1
110 21 9.999999610551452E-1
110 39 4.9999997263758217E-1
110 49 9.999999685555152E-1
110 50 4.9999997576799177E-1
110 117 9.999999730877628E-1
110 118 9.999999606128838E-1
111 11 4.9999994794902713E-1
111 22 4.9999998594015843E-1
111 31 4.999999407619248E-1
111 36 4.999999961848914E-1
111 40 4.999999949454784E-1
111 69 4.9999999067926526E-1
111 82 9.999999909544979E-1
111 103 9.999999957571671E-1
111 106 4.999999662337767E-1
111 115 4.999999903693983E-1
111 122 9.99999994339268E-1
112 1 9.999999989990197E-1
112 18 4.999999872524995E-1
112 29 4.9999998895679837E-1
112 30 4.9999999715037036E-1
112 55 4.999999982942671E-1
112 61 9.999999962441457E-1
112 83 9.999999994218521E-1
112 84 4.999999855965994E-1
112 92 4.99999984207498E-1
113 2 9.999999750934435E-1
113 12 4.9999995892688015E-1
113 70 9.999999991589132E-1
113 77 9.999999599198994E-1
113 108 9.999999963569473E-1
113 130 9.999999626104438E-1
114 32 9.999999950401303E-1
114 42 4.9999996738324665E-1
114 48 4.999999921870522E-1
114 50 4.999999866223267E-1
114 67 9.999999891127942E-1
114 71 4.999999792320467E-1
114 89 9.999999931029938E-1
114 99 4.999999862454834E-1
114 107 4.9999999055359845E-1
115 43 4.999999903370409E-1
115 68 4.999999785878372E-1
115 69 9.999999966441137E-1
115 82 4.9999999546287427E-1
115 106 4.9999996510831446E-1
115 111 4.999999903693983E-1
115 124 9.999999940495317E-1
116 7 9.999999944913293E-1
116 10 9.999999825169407E-1
116 53 4.999999763558427E-1
116 58 9.999999902251703E-1
116 80 9.999999944902781E-1
116 98 9.999999926043809E-1
116 109 4.999999690870519E-1
117 39 9.999999627629254E-1
117 41 9.999999449104655E-1
117 81 9.999999519678919E-1
117 90 4.99999932164879E-1
117 110 9.999999730877628E-1
117 118 4.999999777190139E-1
118 15 9.999999923476033E-1
118 49 9.999999860642732E-1
118 81 9.999999990070966E-1
118 102 9.99999973667376E-1
118 110 9.999999606128838E-1
118 117 4.999999777190139E-1
119 20 4.999999423262109E-1
119 26 9.999999932881389E-1
119 34 4.9999986015684783E-1
119 47 4.999999519729529E-1
119 52 9.999999708807231E-1
119 54 9.999999556390274E-1
119 59 4.999999363046933E-1
119 100 4.999998728121747E-1
119 104 9.999999939389129E-1
120 4 9.999999970422406E-1
120 16 9.999999942729871E-1
120 33 9.999999934083477E-1
120 91 9.999999971470731E-1
120 125 9.99999996081934E-1
120 129 4.9999999637412296E-1
121 24 9.99999996145142E-1
121 27 9.999999887818217E-1
121 35 9.99999980411189E-1
121 60 4.999999750027189E-1
121 63 4.9999998721792693E-1
122 36 9.999999997543959E-1
122 40 9.999999990043861E-1
122 66 9.999999982485092E-1
122 82 4.9999999622853364E-1
122 103 9.999999981943908E-1
122 111 9.99999994339268E-1
122 124 4.9999999291027786E-1
123 30 9.999999987732756E-1
123 38 4.999999974865188E-1
123 55 9.999999991536607E-1
123 57 9.999999982267463E-1
123 61 9.999999987575086E-1
123 79 9.999999998004633E-1
124 40 4.9999999414530444E-1
124 69 9.999999993515574E-1
124 82 9.999999989389771E-1
124 115 9.999999940495317E-1
124 122 4.9999999291027786E-1
125 30 4.9999999776796283E-1
125 33 9.99999997905924E-1
125 38 4.999999962766534E-1
125 120 9.99999996081934E-1
125 129 9.999999958212374E-1
126 14 9.999999995487933E-1
126 17 9.999999982154345E-1
126 19 4.9999999435716186E-1
126 65 9.999999928485778E-1
126 76 4.999999976714922E-1
126 95 9.999999933494297E-1
127 8 9.999999989236728E-1
127 19 4.99999994617068E-1
127 45 9.99999996830026E-1
127 60 9.999999992687332E-1
127 63 4.999999934182341E-1
127 64 4.999999968282262E-1
127 128 4.9999999582991067E-1
128 8 9.999999965419903E-1
128 45 9.999999987517069E-1
128 64 9.999999998478817E-1
128 75 9.999999982730001E-1
128 95 4.99999996450845E-1
128 105 9.99999997217532E-1
128 127 4.9999999582991067E-1
129 4 4.999999954437462E-1
129 38 9.99999998042822E-1
129 72 9.999999958141919E-1
129 86 9.999999991259567E-1
129 120 4.9999999637412296E-1
129 125 9.999999958212374E-1
130 2 4.999999514560259E-1
130 70 9.999999729660607E-1
130 77 9.999999999057365E-1
130 92 9.999999675687606E-1
130 108 9.999999590420768E-1
130 113 9.999999626104438E-1
