%%MatrixMarket matrix coordinate real general
%
127 127 820
1 31 9.982207868240274E-1
1 34 4.9839845666672855E-1
1 55 9.981328749454031E-1
1 60 4.987417283665675E-1
1 84 9.997379374728474E-1
1 111 9.994313962026423E-1
2 12 9.905017829582222E-1
2 69 4.911598189640449E-1
2 78 4.8441791128815703E-1
2 107 9.92678901859353E-1
2 112 9.859475530928066E-1
3 9 4.8772438261403217E-1
3 22 9.914159910533061E-1
3 61 4.8330412460611527E-1
3 63 4.9329215526515885E-1
3 75 4.879577661295412E-1
3 86 4.881625201975449E-1
3 103 9.955487971339636E-1
4 23 9.986977290437963E-1
4 42 9.947304887770971E-1
4 71 4.9672502682469455E-1
4 88 9.938963518199184E-1
4 92 9.996112970056185E-1
4 126 4.9741778867297504E-1
5 13 9.839944251506273E-1
5 43 9.850664593566408E-1
5 88 4.9356654878425454E-1
5 92 4.9221540387270757E-1
5 94 4.7820600542094804E-1
5 98 9.868186776912303E-1
6 21 4.922613119611673E-1
6 25 9.999942663618554E-1
6 37 9.968832267968919E-1
6 44 9.994405453289277E-1
6 64 9.984402789695525E-1
6 119 4.977207316369422E-1
7 53 4.8292078304989E-1
7 58 4.9516721932093116E-1
7 81 9.875614843280051E-1
7 85 9.893854502616579E-1
7 98 4.9296250270490866E-1
7 108 4.9125772936927187E-1
7 114 9.968748199803422E-1
8 18 4.9700054081917744E-1
8 45 9.996556969770459E-1
8 62 9.987196777637259E-1
8 74 4.971860770206189E-1
8 104 4.9826890382518074E-1
8 124 9.993886086782073E-1
8 125 9.980370586033438E-1
9 3 4.8772438261403217E-1
9 22 4.6962671818913965E-1
9 61 9.899769569896175E-1
9 63 4.660014571590411E-1
9 103 4.755210062571623E-1
10 34 4.959991592446735E-1
10 58 9.987768507809976E-1
10 81 9.917869910916981E-1
10 85 4.9252564542997557E-1
10 98 9.946390164894855E-1
10 114 9.901151563260937E-1
11 21 4.8726512453471965E-1
11 32 9.997226420340161E-1
11 96 9.37835561076738E-1
11 105 4.795803213067008E-1
11 110 4.712819261991578E-1
12 2 9.905017829582222E-1
12 69 4.7444447613820767E-1
12 101 4.8125235394052346E-1
12 107 4.842998897404633E-1
12 112 4.771981934143407E-1
13 5 9.839944251506273E-1
13 43 4.9109820668609305E-1
13 46 4.243577693995559E-1
13 88 4.821084076043107E-1
13 94 9.897964828233292E-1
13 97 9.701148136336614E-1
14 36 9.848270614342455E-1
14 49 9.921580790864263E-1
14 82 9.955341900392402E-1
14 102 9.7737471115435E-1
14 116 9.956612826356593E-1
15 24 9.982839384368083E-1
15 28 9.991200796407101E-1
15 36 9.963298549869698E-1
15 118 9.969290448507526E-1
15 124 4.918931270917337E-1
16 20 4.9243495996505365E-1
16 63 4.968213507799541E-1
16 75 9.978935800133087E-1
16 77 9.973388168185333E-1
16 86 9.940638553711605E-1
16 123 9.989865086226862E-1
17 30 9.995658587341856E-1
17 55 4.9171053896779826E-1
17 60 4.9283516182190545E-1
17 93 9.994700768802619E-1
17 111 4.928089737684313E-1
18 8 4.9700054081917744E-1
18 20 4.934428998212088E-1
18 45 4.972064608984309E-1
18 104 9.96897224475911E-1
18 123 4.968039498453335E-1
18 124 4.9695070841529876E-1
19 27 4.6040155030307894E-1
19 35 8.961974590899873E-1
19 54 9.885576139560077E-1
19 100 9.134114965417028E-1
19 117 9.365601986341455E-1
20 16 4.9243495996505365E-1
20 18 4.934428998212088E-1
20 29 4.891875874996806E-1
20 49 9.940394302721631E-1
20 109 9.781142476333522E-1
21 6 4.922613119611673E-1
21 11 4.8726512453471965E-1
21 25 4.9204772546491804E-1
21 32 4.84617799381686E-1
21 37 4.9099402119594987E-1
21 44 4.94900096370279E-1
21 110 4.9207456262696453E-1
22 3 9.914159910533061E-1
22 9 4.6962671818913965E-1
22 61 4.6496880227227955E-1
22 63 9.975016881215644E-1
22 75 4.9534729470723626E-1
22 103 9.993025291932645E-1
22 123 4.953985998788477E-1
23 4 9.986977290437963E-1
23 42 9.98639420633402E-1
23 43 4.916362177453302E-1
23 71 4.9479398343337777E-1
23 88 9.975416020865181E-1
23 92 9.987745693211011E-1
24 15 9.982839384368083E-1
24 28 9.950165408571222E-1
24 36 9.95906382716639E-1
24 118 9.978120339997403E-1
24 124 4.861101180051212E-1
25 6 9.999942663618554E-1
25 21 4.9204772546491804E-1
25 37 9.970561511495016E-1
25 44 9.993512084921182E-1
25 64 9.98592386624532E-1
25 119 9.956458106858526E-1
26 67 9.996159325051951E-1
26 83 9.97594315700505E-1
26 113 9.962683883192331E-1
26 119 4.9366125769646424E-1
26 121 9.993655673391448E-1
27 19 4.6040155030307894E-1
27 35 4.358767640432668E-1
27 47 9.681619540622975E-1
27 50 4.518629142930487E-1
27 52 9.931923269143674E-1
27 54 9.675476641676235E-1
27 99 4.6738826393663097E-1
27 117 9.961935265161824E-1
27 122 4.4632395886014414E-1
28 15 9.991200796407101E-1
28 24 9.950165408571222E-1
28 36 9.953221868476159E-1
28 118 9.936460081658385E-1
28 124 4.9519069016598205E-1
29 20 4.891875874996806E-1
29 51 9.973549382110153E-1
29 56 9.977574140115983E-1
29 72 9.985971922133076E-1
29 79 9.983923514923242E-1
29 86 4.961851313775889E-1
30 17 9.995658587341856E-1
30 60 4.928816316659441E-1
30 76 4.889253702905121E-1
30 84 4.9198401348217197E-1
30 93 9.995137193094781E-1
30 111 4.937643682707218E-1
31 1 9.982207868240274E-1
31 34 4.979886320389125E-1
31 55 9.991368816721317E-1
31 57 4.987197492915171E-1
31 60 9.984411231472262E-1
31 80 9.994259857461415E-1
31 84 4.983195991175899E-1
31 111 4.9838343511762373E-1
31 120 9.993032076115741E-1
31 126 4.977565883391252E-1
32 11 9.997226420340161E-1
32 21 4.84617799381686E-1
32 96 9.433707809787335E-1
32 105 4.7802693397695006E-1
32 110 4.6744838586882276E-1
33 41 9.770931328276959E-1
33 48 4.9021211006964344E-1
33 65 4.913998549069655E-1
33 70 9.898919217085917E-1
33 90 4.9520574110888815E-1
34 1 4.9839845666672855E-1
34 10 4.959991592446735E-1
34 31 4.979886320389125E-1
34 84 4.978682566968925E-1
34 111 4.968147354277013E-1
34 126 4.96548987956467E-1
35 19 8.961974590899873E-1
35 27 4.358767640432668E-1
35 52 4.191957614578992E-1
35 54 9.127165582221078E-1
35 117 4.2653223281869296E-1
36 14 9.848270614342455E-1
36 15 9.963298549869698E-1
36 24 9.95906382716639E-1
36 28 9.953221868476159E-1
36 118 9.889311860307849E-1
37 6 9.968832267968919E-1
37 21 4.9099402119594987E-1
37 25 9.970561511495016E-1
37 44 9.963420550245569E-1
37 64 9.995894367786471E-1
37 110 4.9783691529275664E-1
37 119 9.998604553941912E-1
38 68 9.854502984157996E-1
38 73 9.983286139283178E-1
38 95 9.885022388029541E-1
38 101 9.963980497521577E-1
38 102 4.846574055929015E-1
39 57 9.986777527565471E-1
39 71 4.9816188127731514E-1
39 80 4.9906775329702097E-1
39 87 9.99652570929109E-1
39 120 4.985738563771601E-1
39 126 9.988885329752495E-1
40 89 4.304071061123187E-1
40 91 9.887038111506097E-1
40 95 4.698845193884692E-1
40 102 4.6457114651657055E-1
40 109 4.581744882277425E-1
40 115 9.691825033380796E-1
41 33 9.770931328276959E-1
41 48 4.7204293050938917E-1
41 70 9.902891463680334E-1
41 90 4.8179821439556964E-1
41 109 4.7846175817763437E-1
42 4 9.947304887770971E-1
42 23 9.98639420633402E-1
42 43 4.9388925141105405E-1
42 66 4.900540438001835E-1
42 88 9.980427900021942E-1
42 92 9.950217619475622E-1
42 113 4.9453946077282696E-1
43 5 9.850664593566408E-1
43 13 4.9109820668609305E-1
43 23 4.916362177453302E-1
43 42 4.9388925141105405E-1
43 66 9.857948288772758E-1
43 88 9.934638426437414E-1
43 94 4.733017443352462E-1
43 97 4.9124206833059525E-1
43 105 4.8167398453051846E-1
44 6 9.994405453289277E-1
44 21 4.94900096370279E-1
44 25 9.993512084921182E-1
44 37 9.963420550245569E-1
44 64 9.974224083306621E-1
44 119 4.974901255201072E-1
45 8 9.996556969770459E-1
45 18 4.972064608984309E-1
45 62 9.996895361185559E-1
45 74 4.983898199836925E-1
45 104 9.98101035818972E-1
45 124 9.982004150241857E-1
45 125 9.992909606960084E-1
46 13 4.243577693995559E-1
46 94 4.285742605068809E-1
46 96 9.343461879902326E-1
46 97 4.554227989903488E-1
46 105 4.3017853042662635E-1
47 27 9.681619540622975E-1
47 52 9.887024381237939E-1
47 65 4.860892962866174E-1
47 99 9.936201887632629E-1
47 106 4.864404052469617E-1
47 117 4.7344196661328475E-1
48 33 4.9021211006964344E-1
48 41 4.7204293050938917E-1
48 56 9.959079182677979E-1
48 65 9.972057024288306E-1
48 70 4.7352092196984974E-1
48 72 4.9695753995227915E-1
48 79 9.969115318871091E-1
48 90 9.976264167377672E-1
48 99 4.9014897886167275E-1
48 106 9.966054471755158E-1
49 14 9.921580790864263E-1
49 20 9.940394302721631E-1
49 82 9.879298751864567E-1
49 109 9.82291644897406E-1
49 116 9.921128693588707E-1
50 27 4.518629142930487E-1
50 59 9.907064560406754E-1
50 100 9.244987948008704E-1
50 117 4.6605079965162505E-1
50 122 9.974459377113378E-1
51 29 9.973549382110153E-1
51 56 9.974365927931799E-1
51 72 4.962874781532777E-1
51 77 4.978210567714805E-1
51 79 9.944535008814627E-1
51 86 9.977795751603201E-1
52 27 9.931923269143674E-1
52 35 4.191957614578992E-1
52 47 9.887024381237939E-1
52 54 9.32612694483935E-1
52 99 4.830520001719234E-1
52 117 9.835903092337063E-1
53 7 4.8292078304989E-1
53 81 4.871902378264967E-1
53 89 4.7422000831156486E-1
53 94 9.544933797859086E-1
53 98 4.8392247235968777E-1
53 114 4.8674407677532183E-1
54 19 9.885576139560077E-1
54 27 9.675476641676235E-1
54 35 9.127165582221078E-1
54 52 9.32612694483935E-1
54 59 4.5239761928133554E-1
54 100 4.440044847544356E-1
54 117 9.751087434650535E-1
55 1 9.981328749454031E-1
55 17 4.9171053896779826E-1
55 31 9.991368816721317E-1
55 57 4.9858565003385785E-1
55 60 9.998921982493774E-1
55 80 9.990516007188911E-1
55 84 4.9853119290977E-1
55 111 4.990317268250529E-1
55 120 9.995192184248335E-1
56 29 9.977574140115983E-1
56 48 9.959079182677979E-1
56 51 9.974365927931799E-1
56 65 4.948077053090878E-1
56 72 9.963360553523652E-1
56 79 9.987432053986908E-1
56 106 4.9586608504642604E-1
57 31 4.987197492915171E-1
57 39 9.986777527565471E-1
57 55 4.9858565003385785E-1
57 71 4.9565051528274556E-1
57 80 9.992604196488989E-1
57 87 4.985228199731212E-1
57 120 9.989929296243024E-1
58 7 4.9516721932093116E-1
58 10 9.987768507809976E-1
58 81 9.926992273158384E-1
58 85 9.908775303249686E-1
58 98 9.945637360128502E-1
58 114 9.944612542951822E-1
59 50 9.907064560406754E-1
59 54 4.5239761928133554E-1
59 100 9.665316160221333E-1
59 117 4.650866181470539E-1
59 122 9.973170189888407E-1
60 1 4.987417283665675E-1
60 17 4.9283516182190545E-1
60 30 4.928816316659441E-1
60 31 9.984411231472262E-1
60 55 9.998921982493774E-1
60 80 9.986446862710916E-1
60 84 4.982568437279897E-1
60 111 9.978681672215339E-1
60 120 9.992942549692659E-1
61 3 4.8330412460611527E-1
61 9 9.899769569896175E-1
61 22 4.6496880227227955E-1
61 63 4.5687447734393855E-1
61 103 4.705731151645987E-1
62 8 9.987196777637259E-1
62 45 9.996895361185559E-1
62 74 9.984540889533832E-1
62 104 9.986120069711901E-1
62 124 4.9820101528774013E-1
62 125 9.999135688309289E-1
63 3 4.9329215526515885E-1
63 9 4.660014571590411E-1
63 16 4.968213507799541E-1
63 22 9.975016881215644E-1
63 61 4.5687447734393855E-1
63 75 9.977701785800971E-1
63 77 9.959725578944346E-1
63 86 4.9760667051033836E-1
63 103 9.964898150141059E-1
63 123 9.959447459142772E-1
64 6 9.984402789695525E-1
64 25 9.98592386624532E-1
64 37 9.995894367786471E-1
64 44 9.974224083306621E-1
64 110 4.963476164482676E-1
64 119 9.990052830630535E-1
65 33 4.913998549069655E-1
65 47 4.860892962866174E-1
65 48 9.972057024288306E-1
65 56 4.948077053090878E-1
65 70 4.7381405773230584E-1
65 90 9.945178880511699E-1
65 99 9.922248615571175E-1
65 106 9.99377107145294E-1
66 42 4.900540438001835E-1
66 43 9.857948288772758E-1
66 88 4.887483040154053E-1
66 97 9.842260176937938E-1
66 105 9.940313951793012E-1
67 26 9.996159325051951E-1
67 83 9.982256988005612E-1
67 110 4.947318293189842E-1
67 113 9.980949736773511E-1
67 121 9.996316172565363E-1
68 38 9.854502984157996E-1
68 73 9.919729339586403E-1
68 89 4.346677720706773E-1
68 95 4.7879740101318613E-1
68 101 9.692356192236231E-1
68 108 9.820249418674337E-1
69 2 4.911598189640449E-1
69 12 4.7444447613820767E-1
69 76 9.834561198169839E-1
69 78 9.944772344888735E-1
69 107 9.973462932909681E-1
69 112 9.995222015502407E-1
69 127 9.847564626323396E-1
70 33 9.898919217085917E-1
70 41 9.902891463680334E-1
70 48 4.7352092196984974E-1
70 65 4.7381405773230584E-1
70 90 4.830412377340038E-1
71 4 4.9672502682469455E-1
71 23 4.9479398343337777E-1
71 39 4.9816188127731514E-1
71 57 4.9565051528274556E-1
71 87 9.981655796376424E-1
71 126 9.976244143985166E-1
72 29 9.985971922133076E-1
72 48 4.9695753995227915E-1
72 51 4.962874781532777E-1
72 56 9.963360553523652E-1
72 79 9.991702365563021E-1
72 90 4.9540463805823476E-1
73 38 9.983286139283178E-1
73 68 9.919729339586403E-1
73 91 4.5569166710755715E-1
73 95 9.856869440207082E-1
73 101 9.898888241483519E-1
73 102 4.8054068146757734E-1
73 108 4.785228116003756E-1
74 8 4.971860770206189E-1
74 45 4.983898199836925E-1
74 62 9.984540889533832E-1
74 104 9.979782616543753E-1
74 125 9.990191852854932E-1
75 3 4.879577661295412E-1
75 16 9.978935800133087E-1
75 22 4.9534729470723626E-1
75 63 9.977701785800971E-1
75 77 9.996492670104725E-1
75 86 9.985620703187126E-1
75 103 4.9443613817325127E-1
75 123 9.973573421072008E-1
76 30 4.889253702905121E-1
76 69 9.834561198169839E-1
76 78 9.963875569144135E-1
76 93 9.832114348141615E-1
76 127 9.99946440132979E-1
77 16 9.973388168185333E-1
77 51 4.978210567714805E-1
77 63 9.959725578944346E-1
77 75 9.996492670104725E-1
77 86 9.993478163169615E-1
77 123 9.956619140544922E-1
78 2 4.8441791128815703E-1
78 69 9.944772344888735E-1
78 76 9.963875569144135E-1
78 107 9.908664651357564E-1
78 112 9.90984478373289E-1
78 127 9.967524166797339E-1
79 29 9.983923514923242E-1
79 48 9.969115318871091E-1
79 51 9.944535008814627E-1
79 56 9.987432053986908E-1
79 72 9.991702365563021E-1
79 90 4.9629156406614733E-1
80 31 9.994259857461415E-1
80 39 4.9906775329702097E-1
80 55 9.990516007188911E-1
80 57 9.992604196488989E-1
80 60 9.986446862710916E-1
80 87 4.9814265432528176E-1
80 120 9.998866279699464E-1
80 126 4.9779130502023056E-1
81 7 9.875614843280051E-1
81 10 9.917869910916981E-1
81 53 4.871902378264967E-1
81 58 9.926992273158384E-1
81 94 4.723996456294167E-1
81 98 9.996008924951393E-1
81 114 9.968742245800776E-1
82 14 9.955341900392402E-1
82 49 9.879298751864567E-1
82 95 4.832388027220056E-1
82 102 9.899558458224837E-1
82 109 4.8572764656508266E-1
82 115 9.73076815387202E-1
82 116 9.99435982971696E-1
83 26 9.97594315700505E-1
83 67 9.982256988005612E-1
83 110 9.948734545441388E-1
83 113 4.974286014139183E-1
83 119 9.957232130949438E-1
83 121 9.993972994383372E-1
84 1 9.997379374728474E-1
84 30 4.9198401348217197E-1
84 31 4.983195991175899E-1
84 34 4.978682566968925E-1
84 55 4.9853119290977E-1
84 60 4.982568437279897E-1
84 85 4.9235023474327105E-1
84 111 9.996715454404971E-1
85 7 9.893854502616579E-1
85 10 4.9252564542997557E-1
85 58 9.908775303249686E-1
85 84 4.9235023474327105E-1
85 108 4.861090854247746E-1
85 111 4.9188248127523765E-1
86 3 4.881625201975449E-1
86 16 9.940638553711605E-1
86 29 4.961851313775889E-1
86 51 9.977795751603201E-1
86 63 4.9760667051033836E-1
86 75 9.985620703187126E-1
86 77 9.993478163169615E-1
87 39 9.99652570929109E-1
87 57 4.985228199731212E-1
87 71 9.981655796376424E-1
87 80 4.9814265432528176E-1
87 126 9.995034844998403E-1
88 4 9.938963518199184E-1
88 5 4.9356654878425454E-1
88 13 4.821084076043107E-1
88 23 9.975416020865181E-1
88 42 9.980427900021942E-1
88 43 9.934638426437414E-1
88 66 4.887483040154053E-1
88 92 9.957766344661948E-1
88 97 4.785823543796762E-1
89 40 4.304071061123187E-1
89 53 4.7422000831156486E-1
89 68 4.346677720706773E-1
89 91 9.24212358441015E-1
89 94 4.534121707459354E-1
90 33 4.9520574110888815E-1
90 41 4.8179821439556964E-1
90 48 9.976264167377672E-1
90 65 9.945178880511699E-1
90 70 4.830412377340038E-1
90 72 4.9540463805823476E-1
90 79 4.9629156406614733E-1
90 99 4.881238448589777E-1
90 106 9.915093034393507E-1
91 40 9.887038111506097E-1
91 73 4.5569166710755715E-1
91 89 9.24212358441015E-1
91 95 4.6209687953706613E-1
91 115 4.629037308740899E-1
92 4 9.996112970056185E-1
92 5 4.9221540387270757E-1
92 23 9.987745693211011E-1
92 42 9.950217619475622E-1
92 88 9.957766344661948E-1
92 126 4.9620629251089193E-1
93 17 9.994700768802619E-1
93 30 9.995137193094781E-1
93 76 9.832114348141615E-1
93 111 4.9110660888983343E-1
93 127 9.817410456777519E-1
94 5 4.7820600542094804E-1
94 13 9.897964828233292E-1
94 43 4.733017443352462E-1
94 46 4.285742605068809E-1
94 53 9.544933797859086E-1
94 81 4.723996456294167E-1
94 89 4.534121707459354E-1
95 38 9.885022388029541E-1
95 40 4.698845193884692E-1
95 68 4.7879740101318613E-1
95 73 9.856869440207082E-1
95 82 4.832388027220056E-1
95 91 4.6209687953706613E-1
95 101 9.88085399398709E-1
95 102 9.928260825155655E-1
96 11 9.37835561076738E-1
96 32 9.433707809787335E-1
96 46 9.343461879902326E-1
96 97 4.541285947059568E-1
96 105 4.637683152645975E-1
97 13 9.701148136336614E-1
97 43 4.9124206833059525E-1
97 46 4.554227989903488E-1
97 66 9.842260176937938E-1
97 88 4.785823543796762E-1
97 96 4.541285947059568E-1
97 105 9.778093673822764E-1
98 5 9.868186776912303E-1
98 7 4.9296250270490866E-1
98 10 9.946390164894855E-1
98 53 4.8392247235968777E-1
98 58 9.945637360128502E-1
98 81 9.996008924951393E-1
98 114 9.958065634112262E-1
99 27 4.6738826393663097E-1
99 47 9.936201887632629E-1
99 48 4.9014897886167275E-1
99 52 4.830520001719234E-1
99 65 9.922248615571175E-1
99 90 4.881238448589777E-1
99 106 9.92033016790374E-1
100 19 9.134114965417028E-1
100 50 9.244987948008704E-1
100 54 4.440044847544356E-1
100 59 9.665316160221333E-1
100 122 9.479455353503976E-1
101 12 4.8125235394052346E-1
101 38 9.963980497521577E-1
101 68 9.692356192236231E-1
101 73 9.898888241483519E-1
101 95 9.88085399398709E-1
101 102 9.776227731181765E-1
102 14 9.7737471115435E-1
102 38 4.846574055929015E-1
102 40 4.6457114651657055E-1
102 73 4.8054068146757734E-1
102 82 9.899558458224837E-1
102 95 9.928260825155655E-1
102 101 9.776227731181765E-1
102 115 4.835425002288395E-1
102 116 9.851489597320918E-1
103 3 9.955487971339636E-1
103 9 4.755210062571623E-1
103 22 9.993025291932645E-1
103 61 4.705731151645987E-1
103 63 9.964898150141059E-1
103 75 4.9443613817325127E-1
103 123 4.9331323154667794E-1
104 8 4.9826890382518074E-1
104 18 9.96897224475911E-1
104 45 9.98101035818972E-1
104 62 9.986120069711901E-1
104 74 9.979782616543753E-1
104 123 4.9708409196662123E-1
104 124 4.9707066421671525E-1
104 125 9.984202271659709E-1
105 11 4.795803213067008E-1
105 32 4.7802693397695006E-1
105 43 4.8167398453051846E-1
105 46 4.3017853042662635E-1
105 66 9.940313951793012E-1
105 96 4.637683152645975E-1
105 97 9.778093673822764E-1
105 110 4.811771928344851E-1
105 113 4.805621632489973E-1
106 47 4.864404052469617E-1
106 48 9.966054471755158E-1
106 56 4.9586608504642604E-1
106 65 9.99377107145294E-1
106 90 9.915093034393507E-1
106 99 9.92033016790374E-1
107 2 9.92678901859353E-1
107 12 4.842998897404633E-1
107 69 9.973462932909681E-1
107 78 9.908664651357564E-1
107 112 9.979321274507736E-1
107 127 4.884980392597408E-1
108 7 4.9125772936927187E-1
108 68 9.820249418674337E-1
108 73 4.785228116003756E-1
108 85 4.861090854247746E-1
108 114 4.8273994730336206E-1
109 20 9.781142476333522E-1
109 40 4.581744882277425E-1
109 41 4.7846175817763437E-1
109 49 9.82291644897406E-1
109 82 4.8572764656508266E-1
109 115 9.848245630393228E-1
109 116 9.778684816096636E-1
110 11 4.712819261991578E-1
110 21 4.9207456262696453E-1
110 32 4.6744838586882276E-1
110 37 4.9783691529275664E-1
110 64 4.963476164482676E-1
110 67 4.947318293189842E-1
110 83 9.948734545441388E-1
110 105 4.811771928344851E-1
110 113 4.945576460518831E-1
110 119 9.967886912381566E-1
110 121 4.9577460769500603E-1
111 1 9.994313962026423E-1
111 17 4.928089737684313E-1
111 30 4.937643682707218E-1
111 31 4.9838343511762373E-1
111 34 4.968147354277013E-1
111 55 4.990317268250529E-1
111 60 9.978681672215339E-1
111 84 9.996715454404971E-1
111 85 4.9188248127523765E-1
111 93 4.9110660888983343E-1
112 2 9.859475530928066E-1
112 12 4.771981934143407E-1
112 69 9.995222015502407E-1
112 78 9.90984478373289E-1
112 107 9.979321274507736E-1
112 127 9.789790224294287E-1
113 26 9.962683883192331E-1
113 42 4.9453946077282696E-1
113 67 9.980949736773511E-1
113 83 4.974286014139183E-1
113 105 4.805621632489973E-1
113 110 4.945576460518831E-1
113 121 9.966246028032302E-1
114 7 9.968748199803422E-1
114 10 9.901151563260937E-1
114 53 4.8674407677532183E-1
114 58 9.944612542951822E-1
114 81 9.968742245800776E-1
114 98 9.958065634112262E-1
114 108 4.8273994730336206E-1
115 40 9.691825033380796E-1
115 82 9.73076815387202E-1
115 91 4.629037308740899E-1
115 102 4.835425002288395E-1
115 109 9.848245630393228E-1
115 116 4.8749869145323843E-1
116 14 9.956612826356593E-1
116 49 9.921128693588707E-1
116 82 9.99435982971696E-1
116 102 9.851489597320918E-1
116 109 9.778684816096636E-1
116 115 4.8749869145323843E-1
117 19 9.365601986341455E-1
117 27 9.961935265161824E-1
117 35 4.2653223281869296E-1
117 47 4.7344196661328475E-1
117 50 4.6605079965162505E-1
117 52 9.835903092337063E-1
117 54 9.751087434650535E-1
117 59 4.650866181470539E-1
117 122 4.623963073375937E-1
118 15 9.969290448507526E-1
118 24 9.978120339997403E-1
118 28 9.936460081658385E-1
118 36 9.889311860307849E-1
118 124 4.849364374927426E-1
119 6 4.977207316369422E-1
119 25 9.956458106858526E-1
119 26 4.9366125769646424E-1
119 37 9.998604553941912E-1
119 44 4.974901255201072E-1
119 64 9.990052830630535E-1
119 83 9.957232130949438E-1
119 110 9.967886912381566E-1
119 121 4.959877443803144E-1
120 31 9.993032076115741E-1
120 39 4.985738563771601E-1
120 55 9.995192184248335E-1
120 57 9.989929296243024E-1
120 60 9.992942549692659E-1
120 80 9.998866279699464E-1
121 26 9.993655673391448E-1
121 67 9.996316172565363E-1
121 83 9.993972994383372E-1
121 110 4.9577460769500603E-1
121 113 9.966246028032302E-1
121 119 4.959877443803144E-1
122 27 4.4632395886014414E-1
122 50 9.974459377113378E-1
122 59 9.973170189888407E-1
122 100 9.479455353503976E-1
122 117 4.623963073375937E-1
123 16 9.989865086226862E-1
123 18 4.968039498453335E-1
123 22 4.953985998788477E-1
123 63 9.959447459142772E-1
123 75 9.973573421072008E-1
123 77 9.956619140544922E-1
123 103 4.9331323154667794E-1
123 104 4.9708409196662123E-1
124 8 9.993886086782073E-1
124 15 4.918931270917337E-1
124 18 4.9695070841529876E-1
124 24 4.861101180051212E-1
124 28 4.9519069016598205E-1
124 45 9.982004150241857E-1
124 62 4.9820101528774013E-1
124 104 4.9707066421671525E-1
124 118 4.849364374927426E-1
124 125 4.9763612535104296E-1
125 8 9.980370586033438E-1
125 45 9.992909606960084E-1
125 62 9.999135688309289E-1
125 74 9.990191852854932E-1
125 104 9.984202271659709E-1
125 124 4.9763612535104296E-1
126 4 4.9741778867297504E-1
126 31 4.977565883391252E-1
126 34 4.96548987956467E-1
126 39 9.988885329752495E-1
126 71 9.976244143985166E-1
126 80 4.9779130502023056E-1
126 87 9.995034844998403E-1
126 92 4.9620629251089193E-1
127 69 9.847564626323396E-1
127 76 9.99946440132979E-1
127 78 9.967524166797339E-1
127 93 9.817410456777519E-1
127 107 4.884980392597408E-1
127 112 9.789790224294287E-1
