%%MatrixMarket matrix coordinate real general
%
127 127 2294
1 7 4.780301155565661E-1
1 10 9.87827223707669E-1
1 17 4.898197485568479E-1
1 30 4.908715812087198E-1
1 31 9.982207868240274E-1
1 34 9.967969133334571E-1
1 39 9.906598997832802E-1
1 55 9.981328749454031E-1
1 57 9.91977384154407E-1
1 58 9.843039009483716E-1
1 60 9.97483456733135E-1
1 80 9.960707012752912E-1
1 81 4.801153799870489E-1
1 84 9.997379374728474E-1
1 85 4.902563689868681E-1
1 87 9.880037509577893E-1
1 92 4.88588392413364E-1
1 93 4.877293212904637E-1
1 98 4.833846217824351E-1
1 111 9.994313962026423E-1
1 114 4.8036023978706627E-1
1 120 9.964929238383615E-1
1 126 9.894372554673987E-1
2 12 9.905017829582222E-1
2 24 4.3646472958658145E-1
2 38 9.098185102570836E-1
2 68 4.445739792573654E-1
2 69 9.823196379280899E-1
2 73 8.937953218488829E-1
2 76 9.452102792163849E-1
2 78 9.688358225763141E-1
2 93 4.4010229141039936E-1
2 101 9.250722597072507E-1
2 107 9.92678901859353E-1
2 108 4.5751087111679617E-1
2 112 9.859475530928066E-1
2 127 9.463278545897319E-1
3 9 9.754487652280643E-1
3 16 4.812201664795514E-1
3 22 9.914159910533061E-1
3 50 3.812986848620871E-1
3 51 4.83470626126706E-1
3 56 4.76151990832502E-1
3 59 3.46220670190516E-1
3 61 9.666082492122305E-1
3 63 9.865843105303177E-1
3 74 4.77218443912062E-1
3 75 4.879577661295412E-1
3 77 4.8645770157231033E-1
3 86 9.763250403950898E-1
3 103 9.955487971339636E-1
3 104 4.7463977470629126E-1
3 122 3.6112806968500316E-1
3 123 4.842975137908172E-1
4 5 9.792798213142225E-1
4 13 4.6896749149830325E-1
4 23 9.986977290437963E-1
4 26 4.8749299519140193E-1
4 31 9.842634484126526E-1
4 34 9.897511895498651E-1
4 39 9.889879077920882E-1
4 42 9.947304887770971E-1
4 43 4.875432054004877E-1
4 57 9.805082613207666E-1
4 66 4.7759835977100695E-1
4 67 4.873400700266898E-1
4 71 9.934500536493891E-1
4 80 9.822180962907939E-1
4 87 9.917853115988559E-1
4 88 9.938963518199184E-1
4 92 9.996112970056185E-1
4 97 4.6046522838505766E-1
4 113 4.893890807783229E-1
4 120 9.79538268755009E-1
4 126 9.948355773459501E-1
5 4 9.792798213142225E-1
5 7 4.7356935991568827E-1
5 10 9.829196273278776E-1
5 13 9.839944251506273E-1
5 23 9.797861444226308E-1
5 34 4.887941746519936E-1
5 42 9.757971562239939E-1
5 43 9.850664593566408E-1
5 46 3.822215924690909E-1
5 53 4.6830890642984613E-1
5 58 9.75034443451803E-1
5 81 9.836798404920901E-1
5 88 9.871330975685091E-1
5 89 4.0513844071759114E-1
5 92 9.844308077454151E-1
5 94 4.7820600542094804E-1
5 97 4.7186777662686585E-1
5 98 9.868186776912303E-1
5 114 9.681293522276643E-1
5 126 4.810186853781261E-1
6 11 9.224235432488809E-1
6 21 9.845226239223346E-1
6 25 9.999942663618554E-1
6 26 4.849695184859488E-1
6 32 4.5680551626043353E-1
6 37 9.968832267968919E-1
6 44 9.994405453289277E-1
6 64 9.984402789695525E-1
6 67 4.853385360883857E-1
6 71 4.5992336879971474E-1
6 83 9.830813670864768E-1
6 110 9.873154493468205E-1
6 113 4.8088170784571654E-1
6 119 9.954414632738844E-1
6 121 9.766207789538573E-1
7 1 4.780301155565661E-1
7 5 4.7356935991568827E-1
7 10 9.826748435081374E-1
7 34 4.7731894059309926E-1
7 53 9.6584156609978E-1
7 58 9.903344386418623E-1
7 68 9.472236964324442E-1
7 73 4.511069858640388E-1
7 81 9.875614843280051E-1
7 84 4.807526136349607E-1
7 85 9.893854502616579E-1
7 89 4.2314046168109953E-1
7 98 9.859250054098173E-1
7 108 9.825154587385437E-1
7 111 4.7864238400221426E-1
7 114 9.968748199803422E-1
8 14 4.775373075411149E-1
8 15 9.791091669762462E-1
8 16 4.892874831516112E-1
8 18 9.940010816383549E-1
8 20 4.832907291658875E-1
8 24 4.829539970753667E-1
8 28 9.867091200277772E-1
8 36 9.740760076521561E-1
8 45 9.996556969770459E-1
8 49 4.7970352655027365E-1
8 62 9.987196777637259E-1
8 74 9.943721540412378E-1
8 75 4.833575842062313E-1
8 104 9.965378076503615E-1
8 118 4.8256130202405334E-1
8 123 4.912500944308999E-1
8 124 9.993886086782073E-1
8 125 9.980370586033438E-1
9 3 9.754487652280643E-1
9 19 3.429688115639148E-1
9 22 4.6962671818913965E-1
9 27 4.416660710113534E-1
9 47 9.234132234714226E-1
9 50 4.382912544125132E-1
9 51 4.6087170189089915E-1
9 52 9.216777876383949E-1
9 54 3.8164592737637804E-1
9 56 4.56792722567437E-1
9 59 4.08634539643489E-1
9 61 9.899769569896175E-1
9 63 4.660014571590411E-1
9 75 4.582978399229409E-1
9 77 4.5744799090931065E-1
9 86 4.6263387437405545E-1
9 99 4.5958699847201595E-1
9 100 3.3626773103909463E-1
9 103 4.755210062571623E-1
9 106 4.600905184500947E-1
9 117 4.3890910705718517E-1
9 122 4.2167175557355674E-1
10 1 9.87827223707669E-1
10 5 9.829196273278776E-1
10 7 9.826748435081374E-1
10 13 4.70362042461654E-1
10 31 4.899548465418227E-1
10 34 9.91998318489347E-1
10 53 4.697376900986052E-1
10 55 4.8833828588284184E-1
10 58 9.987768507809976E-1
10 60 4.872299655698081E-1
10 81 9.917869910916981E-1
10 84 9.892179258499114E-1
10 85 9.850512908599511E-1
10 94 4.5481234891191563E-1
10 98 9.946390164894855E-1
10 108 4.6813314165768016E-1
10 111 9.853441016431884E-1
10 114 9.901151563260937E-1
11 6 9.224235432488809E-1
11 21 9.745302490694393E-1
11 25 9.216217848060264E-1
11 32 9.997226420340161E-1
11 37 4.6195152163657055E-1
11 44 9.342575119121275E-1
11 46 3.970354406717175E-1
11 64 4.594018438033382E-1
11 66 4.636252101479769E-1
11 83 4.528916034496688E-1
11 96 9.37835561076738E-1
11 105 9.591606426134016E-1
11 110 4.712819261991578E-1
11 113 4.510003073989939E-1
11 119 4.6215772770572233E-1
12 2 9.905017829582222E-1
12 24 4.6010475696912706E-1
12 38 9.461176371833968E-1
12 68 9.139273399977607E-1
12 69 9.488889522764153E-1
12 73 9.299620035952001E-1
12 78 9.338312835261159E-1
12 95 9.12979930876331E-1
12 101 9.625047078810469E-1
12 102 4.534197280766547E-1
12 107 9.685997794809266E-1
12 108 4.580655968478982E-1
12 112 9.543963868286814E-1
12 118 4.5522596041582014E-1
13 4 4.6896749149830325E-1
13 5 9.839944251506273E-1
13 10 4.70362042461654E-1
13 23 4.7264842241414406E-1
13 42 4.736974811187068E-1
13 43 9.821964133721861E-1
13 46 4.243577693995559E-1
13 53 9.384235346471701E-1
13 66 4.7219383518855135E-1
13 81 9.596165111473375E-1
13 88 4.821084076043107E-1
13 89 4.257726673007688E-1
13 92 4.73403706369603E-1
13 94 9.897964828233292E-1
13 96 3.974544118744478E-1
13 97 9.701148136336614E-1
13 98 9.602192371652132E-1
14 8 4.775373075411149E-1
14 15 9.675162819915052E-1
14 18 4.8087166244143226E-1
14 20 9.746609318055461E-1
14 24 9.661590648268117E-1
14 28 9.687652701547185E-1
14 36 9.848270614342455E-1
14 38 4.5393346351070485E-1
14 40 4.33521597358471E-1
14 49 9.921580790864263E-1
14 82 9.955341900392402E-1
14 95 4.73089459635247E-1
14 101 4.65807253006847E-1
14 102 9.7737471115435E-1
14 109 9.613112341214418E-1
14 115 9.506299077709929E-1
14 116 9.956612826356593E-1
14 118 4.74440919762769E-1
14 124 4.8215173573089576E-1
15 8 9.791091669762462E-1
15 14 9.675162819915052E-1
15 18 4.805372117535081E-1
15 24 9.982839384368083E-1
15 28 9.991200796407101E-1
15 36 9.963298549869698E-1
15 45 9.737831173092426E-1
15 49 4.7395141039363836E-1
15 62 9.688175479207317E-1
15 74 4.7737302051937147E-1
15 82 4.7086366387527856E-1
15 104 4.7971547556764815E-1
15 116 4.702567113103332E-1
15 118 9.969290448507526E-1
15 124 9.837862541834674E-1
15 125 4.832904398870131E-1
16 3 4.812201664795514E-1
16 8 4.892874831516112E-1
16 18 9.935929777290646E-1
16 20 9.848699199301073E-1
16 22 9.853816557400064E-1
16 29 9.841475644747526E-1
16 45 4.9071991101792994E-1
16 48 4.766781752307632E-1
16 49 4.818412300986634E-1
16 51 9.873384126741038E-1
16 56 4.8764123332357034E-1
16 62 9.822618200774841E-1
16 63 9.936427015599082E-1
16 72 4.8758352099374297E-1
16 74 9.835450628408391E-1
16 75 9.978935800133087E-1
16 77 9.973388168185333E-1
16 79 4.8637965323992116E-1
16 86 9.940638553711605E-1
16 103 4.9060656787093715E-1
16 104 9.9071992218192E-1
16 123 9.989865086226862E-1
16 124 4.881395344015094E-1
16 125 9.817037421837377E-1
17 1 4.898197485568479E-1
17 30 9.995658587341856E-1
17 31 4.876450095036947E-1
17 55 9.834210779355965E-1
17 57 4.866580878002254E-1
17 60 9.856703236438109E-1
17 69 4.6219036186271645E-1
17 76 9.773783768584424E-1
17 78 4.785259074942964E-1
17 80 4.880521257859968E-1
17 84 4.907290179748185E-1
17 85 9.751229440973298E-1
17 93 9.994700768802619E-1
17 107 4.5587925724899075E-1
17 111 9.856179475368626E-1
17 112 4.56367313641049E-1
17 120 4.8961544950074E-1
17 127 9.757827600359348E-1
18 8 9.940010816383549E-1
18 14 4.8087166244143226E-1
18 15 4.805372117535081E-1
18 16 9.935929777290646E-1
18 20 9.868857996424176E-1
18 22 4.8610258156828545E-1
18 24 4.7282920755576363E-1
18 28 4.85598594761332E-1
18 36 4.815890439208384E-1
18 45 9.944129217968618E-1
18 49 9.76042752034104E-1
18 62 9.934123011083793E-1
18 63 9.796098894082157E-1
18 74 9.899122442872448E-1
18 75 9.847080368022765E-1
18 77 9.827804531848388E-1
18 82 4.6930072237209436E-1
18 86 4.87775027152399E-1
18 103 4.82047573926969E-1
18 104 9.96897224475911E-1
18 116 4.729269473622834E-1
18 118 4.6968477731929725E-1
18 123 9.93607899690667E-1
18 124 9.939014168305975E-1
18 125 9.922660680091269E-1
19 9 3.429688115639148E-1
19 27 9.208031006061579E-1
19 35 8.961974590899873E-1
19 47 4.045193450472621E-1
19 50 8.534785196622185E-1
19 52 4.3606400804841644E-1
19 54 9.885576139560077E-1
19 59 8.94898086403133E-1
19 65 3.382291625797836E-1
19 99 3.745870600463389E-1
19 100 9.134114965417028E-1
19 106 3.379789646655874E-1
19 117 9.365601986341455E-1
19 122 8.675044088916113E-1
20 8 4.832907291658875E-1
20 14 9.746609318055461E-1
20 16 9.848699199301073E-1
20 18 9.868857996424176E-1
20 29 9.783751749993612E-1
20 41 4.5228402511768206E-1
20 49 9.940394302721631E-1
20 72 9.765812956206809E-1
20 75 4.8738284621993083E-1
20 77 4.8846352170915397E-1
20 79 4.842748357755211E-1
20 82 4.827820193559044E-1
20 86 4.855104067975634E-1
20 102 4.6034494544020504E-1
20 104 4.858661480481737E-1
20 109 9.781142476333522E-1
20 115 4.686940217298912E-1
20 116 9.730642390712394E-1
20 123 4.888546288092261E-1
20 124 9.701444266351451E-1
21 6 9.845226239223346E-1
21 11 9.745302490694393E-1
21 25 9.840954509298361E-1
21 32 9.69235598763372E-1
21 37 9.819880423918997E-1
21 44 9.89800192740558E-1
21 64 9.809087399644336E-1
21 67 4.746294576916485E-1
21 83 4.8195700800825786E-1
21 96 4.25344131000442E-1
21 105 9.464594117350075E-1
21 110 9.841491252539291E-1
21 113 4.743291300323339E-1
21 119 9.810733525404303E-1
21 121 4.774060474828908E-1
22 3 9.914159910533061E-1
22 9 4.6962671818913965E-1
22 16 9.853816557400064E-1
22 18 4.8610258156828545E-1
22 45 4.851670489509119E-1
22 51 4.870097347366955E-1
22 61 4.6496880227227955E-1
22 62 9.750687408025037E-1
22 63 9.975016881215644E-1
22 74 9.845398216681374E-1
22 75 9.906945894144725E-1
22 77 9.871984354690763E-1
22 86 9.862402106018882E-1
22 103 9.993025291932645E-1
22 104 9.818102563283458E-1
22 123 9.907971997576954E-1
22 125 9.767148593025882E-1
23 4 9.986977290437963E-1
23 5 9.797861444226308E-1
23 13 4.7264842241414406E-1
23 26 9.775114071410664E-1
23 34 4.9101480389531343E-1
23 39 4.9056784067720466E-1
23 42 9.98639420633402E-1
23 43 9.832724354906603E-1
23 46 3.656124909100859E-1
23 66 4.8440563135767256E-1
23 67 9.785013977057109E-1
23 71 9.895879668667555E-1
23 83 4.8255340613607367E-1
23 87 9.852248664388474E-1
23 88 9.975416020865181E-1
23 92 9.987745693211011E-1
23 97 4.6871440859425795E-1
23 105 4.695416561612737E-1
23 113 9.844951510760203E-1
23 121 4.8631361558364167E-1
23 126 9.889579352910047E-1
24 2 4.3646472958658145E-1
24 8 4.829539970753667E-1
24 12 4.6010475696912706E-1
24 14 9.661590648268117E-1
24 15 9.982839384368083E-1
24 18 4.7282920755576363E-1
24 28 9.950165408571222E-1
24 36 9.95906382716639E-1
24 45 4.7959681284913525E-1
24 49 4.701225054802473E-1
24 62 4.765214681354822E-1
24 82 9.424643170980399E-1
24 101 4.5346932511495347E-1
24 102 4.616516143350517E-1
24 104 4.710881260350047E-1
24 116 4.697150134547697E-1
24 118 9.978120339997403E-1
24 124 9.722202360102424E-1
24 125 4.751528846668665E-1
25 6 9.999942663618554E-1
25 11 9.216217848060264E-1
25 21 9.840954509298361E-1
25 26 4.8531708397459816E-1
25 32 4.563808300595168E-1
25 37 9.970561511495016E-1
25 44 9.993512084921182E-1
25 64 9.98592386624532E-1
25 67 9.713141848734616E-1
25 71 4.605090550733146E-1
25 83 9.835569977511527E-1
25 110 9.874770356534011E-1
25 113 4.811838556567918E-1
25 119 9.956458106858526E-1
25 121 9.772028248127722E-1
26 4 4.8749299519140193E-1
26 6 4.849695184859488E-1
26 23 9.775114071410664E-1
26 25 4.8531708397459816E-1
26 37 9.850742696581015E-1
26 42 9.794242928779859E-1
26 44 4.8351037637936917E-1
26 64 9.818691211019822E-1
26 66 4.7697369871244644E-1
26 67 9.996159325051951E-1
26 71 9.860951971822779E-1
26 83 9.97594315700505E-1
26 87 4.873051476766787E-1
26 110 9.8640624256062E-1
26 113 9.962683883192331E-1
26 119 9.873225153929285E-1
26 121 9.993655673391448E-1
26 126 4.8640171483814487E-1
27 9 4.416660710113534E-1
27 19 9.208031006061579E-1
27 33 4.2786085823277004E-1
27 35 8.717535280865336E-1
27 47 9.681619540622975E-1
27 50 9.037258285860974E-1
27 52 9.931923269143674E-1
27 54 9.675476641676235E-1
27 59 8.971495016740588E-1
27 65 4.4301725074771225E-1
27 99 9.347765278732619E-1
27 100 4.118080885782387E-1
27 106 4.439422712629789E-1
27 117 9.961935265161824E-1
27 122 8.926479177202883E-1
28 8 9.867091200277772E-1
28 14 9.687652701547185E-1
28 15 9.991200796407101E-1
28 18 4.85598594761332E-1
28 24 9.950165408571222E-1
28 36 9.953221868476159E-1
28 45 9.823487831784511E-1
28 49 4.7701891843770383E-1
28 62 9.78144251575979E-1
28 74 4.829557118422441E-1
28 82 4.711333498602534E-1
28 104 4.851163685514453E-1
28 116 4.711892356526833E-1
28 118 9.936460081658385E-1
28 124 9.903813803319641E-1
28 125 9.761897396973189E-1
29 16 9.841475644747526E-1
29 20 9.783751749993612E-1
29 33 4.7568986941464875E-1
29 41 4.621142584666187E-1
29 48 9.910546631685307E-1
29 51 9.973549382110153E-1
29 56 9.977574140115983E-1
29 63 4.880364809893039E-1
29 65 9.798929367168128E-1
29 70 4.562124091841441E-1
29 72 9.985971922133076E-1
29 75 9.871222566322504E-1
29 77 9.90991029116562E-1
29 79 9.983923514923242E-1
29 86 9.923702627551778E-1
29 90 9.843992253864519E-1
29 99 4.7530638637931094E-1
29 106 9.81775928331095E-1
29 109 4.762459445890401E-1
29 123 4.8836704828800115E-1
30 1 4.908715812087198E-1
30 17 9.995658587341856E-1
30 31 4.880181467045983E-1
30 55 9.837598176204592E-1
30 57 4.860152122860389E-1
30 60 9.857632633318882E-1
30 69 4.627280362027771E-1
30 76 9.778507405810242E-1
30 78 4.792731570543712E-1
30 80 4.879380522630437E-1
30 84 4.9198401348217197E-1
30 85 9.810815539492412E-1
30 93 9.995137193094781E-1
30 107 4.573589819797584E-1
30 111 9.875287365414436E-1
30 112 4.5699536903615984E-1
30 120 4.894978451149323E-1
30 127 9.760789597577665E-1
31 1 9.982207868240274E-1
31 4 9.842634484126526E-1
31 10 4.899548465418227E-1
31 17 4.876450095036947E-1
31 30 4.880181467045983E-1
31 34 9.95977264077825E-1
31 39 9.96973754515963E-1
31 55 9.991368816721317E-1
31 57 9.974394985830342E-1
31 58 4.868971182486134E-1
31 60 9.984411231472262E-1
31 71 9.876431220064369E-1
31 80 9.994259857461415E-1
31 84 9.966391982351798E-1
31 87 9.951877526706778E-1
31 92 4.91020913372268E-1
31 93 4.846887830534017E-1
31 111 9.967668702352475E-1
31 114 4.72606129691421E-1
31 120 9.993032076115741E-1
31 126 9.955131766782505E-1
32 6 4.5680551626043353E-1
32 11 9.997226420340161E-1
32 21 9.69235598763372E-1
32 25 4.563808300595168E-1
32 37 4.5751687996880674E-1
32 44 9.260610303482898E-1
32 46 3.996898621602544E-1
32 64 4.5484732692166463E-1
32 66 4.611602202950024E-1
32 83 4.4819686076462545E-1
32 96 9.433707809787335E-1
32 105 9.560538679539001E-1
32 110 4.6744838586882276E-1
32 113 4.4661546073697855E-1
32 119 4.577411570417531E-1
33 27 4.2786085823277004E-1
33 29 4.7568986941464875E-1
33 35 3.890528464782675E-1
33 41 9.770931328276959E-1
33 47 9.472506667832853E-1
33 48 9.804242201392869E-1
33 51 4.687491099056644E-1
33 52 4.4672745791292945E-1
33 56 4.796512750058859E-1
33 65 9.82799709813931E-1
33 70 9.898919217085917E-1
33 72 4.819388231219168E-1
33 79 9.665573301610492E-1
33 90 9.904114822177763E-1
33 99 9.721607112694776E-1
33 106 9.757539313319913E-1
33 109 4.6062899227176896E-1
34 1 9.967969133334571E-1
34 4 9.897511895498651E-1
34 5 4.887941746519936E-1
34 7 4.7731894059309926E-1
34 10 9.91998318489347E-1
34 23 4.9101480389531343E-1
34 31 9.95977264077825E-1
34 39 9.907258692036315E-1
34 43 4.747327262787281E-1
34 53 4.466355107485155E-1
34 55 9.926021926592391E-1
34 57 4.939889822252563E-1
34 58 4.930790264665216E-1
34 60 9.90803313772326E-1
34 71 4.915332316559739E-1
34 80 9.926093728370019E-1
34 81 4.849421162835283E-1
34 84 9.95736513393785E-1
34 85 4.859359362614305E-1
34 87 9.899925409390453E-1
34 88 4.8745141749200155E-1
34 92 9.899113528008322E-1
34 98 4.880794036449172E-1
34 111 9.936294708554027E-1
34 114 4.824351018662992E-1
34 120 9.919532391686338E-1
34 126 9.93097975912934E-1
35 19 8.961974590899873E-1
35 27 8.717535280865336E-1
35 33 3.890528464782675E-1
35 41 3.5139696211445204E-1
35 47 4.1133520207052016E-1
35 48 3.4906020131148296E-1
35 52 4.191957614578992E-1
35 54 9.127165582221078E-1
35 65 3.679400903793642E-1
35 70 3.9109530453065405E-1
35 90 3.570741364246654E-1
35 99 3.944718038475384E-1
35 100 3.363301394198172E-1
35 106 3.6234796633518884E-1
35 117 8.530644656373859E-1
36 8 9.740760076521561E-1
36 14 9.848270614342455E-1
36 15 9.963298549869698E-1
36 18 4.815890439208384E-1
36 24 9.95906382716639E-1
36 28 9.953221868476159E-1
36 45 4.839553080882778E-1
36 49 9.665431749736203E-1
36 62 4.808240826444198E-1
36 82 9.663032553057773E-1
36 95 4.541578987611873E-1
36 101 4.5777773178002934E-1
36 102 4.723958129719109E-1
36 116 9.648513785565929E-1
36 118 9.889311860307849E-1
36 124 9.808560679481079E-1
36 125 4.7925673966102855E-1
37 6 9.968832267968919E-1
37 11 4.6195152163657055E-1
37 21 9.819880423918997E-1
37 25 9.970561511495016E-1
37 26 9.850742696581015E-1
37 32 4.5751687996880674E-1
37 42 4.705626384590257E-1
37 44 9.963420550245569E-1
37 64 9.995894367786471E-1
37 67 9.861245534822922E-1
37 71 4.720639304317524E-1
37 83 9.942308179152186E-1
37 110 9.956738305855133E-1
37 113 9.801549135669118E-1
37 119 9.998604553941912E-1
37 121 9.900373525922209E-1
38 2 9.098185102570836E-1
38 12 9.461176371833968E-1
38 14 4.5393346351070485E-1
38 40 8.965276835805782E-1
38 68 9.854502984157996E-1
38 73 9.983286139283178E-1
38 82 4.637652515132027E-1
38 89 4.0550476078041753E-1
38 91 8.954799362977581E-1
38 95 9.885022388029541E-1
38 101 9.963980497521577E-1
38 102 9.69314811185803E-1
38 107 4.406151388053632E-1
38 108 9.50901836248099E-1
38 112 4.257204917096879E-1
38 115 8.96991384648995E-1
38 116 4.5770506795224597E-1
39 1 9.906598997832802E-1
39 4 9.889879077920882E-1
39 23 4.9056784067720466E-1
39 31 9.96973754515963E-1
39 34 9.907258692036315E-1
39 55 9.945784249704976E-1
39 57 9.986777527565471E-1
39 60 9.936257080345261E-1
39 71 9.963237625546303E-1
39 80 9.981355065940419E-1
39 84 9.87333339928398E-1
39 87 9.99652570929109E-1
39 88 4.834486980318043E-1
39 92 4.927862521510893E-1
39 111 9.876750061845798E-1
39 120 9.971477127543202E-1
39 126 9.988885329752495E-1
40 14 4.33521597358471E-1
40 38 8.965276835805782E-1
40 41 4.4174717508355466E-1
40 49 4.3307839881004984E-1
40 68 4.3763260383330094E-1
40 73 9.05955106995683E-1
40 82 4.5387505009920004E-1
40 89 4.304071061123187E-1
40 91 9.887038111506097E-1
40 95 9.397690387769384E-1
40 101 4.4059801238504787E-1
40 102 9.291422930331411E-1
40 109 4.581744882277425E-1
40 115 9.691825033380796E-1
40 116 4.528433833354134E-1
41 20 4.5228402511768206E-1
41 29 4.621142584666187E-1
41 33 9.770931328276959E-1
41 35 3.5139696211445204E-1
41 40 4.4174717508355466E-1
41 48 4.7204293050938917E-1
41 56 4.60472415604009E-1
41 65 4.674245609765858E-1
41 70 9.902891463680334E-1
41 72 4.712662554450645E-1
41 79 4.686565761038184E-1
41 90 9.635964287911393E-1
41 91 4.072433301992781E-1
41 99 4.5221869390450437E-1
41 106 4.6181138108705616E-1
41 109 9.569235163552687E-1
41 115 9.347051256161083E-1
42 4 9.947304887770971E-1
42 5 9.757971562239939E-1
42 13 4.736974811187068E-1
42 23 9.98639420633402E-1
42 26 9.794242928779859E-1
42 37 4.705626384590257E-1
42 43 9.877785028221081E-1
42 46 3.7704448335159263E-1
42 64 4.6633740996051914E-1
42 66 9.80108087600367E-1
42 67 9.816325033812962E-1
42 71 9.840604400785969E-1
42 83 4.8505920169846606E-1
42 87 4.8838200438293655E-1
42 88 9.980427900021942E-1
42 92 9.950217619475622E-1
42 96 3.9592849409844155E-1
42 97 4.7515496629860915E-1
42 105 4.7765130822230617E-1
42 113 9.890789215456539E-1
42 119 4.732110107039544E-1
42 121 9.76256995164496E-1
42 126 4.904502233035662E-1
43 4 4.875432054004877E-1
43 5 9.850664593566408E-1
43 13 9.821964133721861E-1
43 23 9.832724354906603E-1
43 34 4.747327262787281E-1
43 42 9.877785028221081E-1
43 46 4.142118853622648E-1
43 66 9.857948288772758E-1
43 71 4.7379019576206965E-1
43 88 9.934638426437414E-1
43 92 9.79508783234643E-1
43 94 4.733017443352462E-1
43 96 4.159899791146879E-1
43 97 9.824841366611905E-1
43 105 9.633479690610369E-1
43 113 4.80990517139695E-1
43 126 4.7411250975184305E-1
44 6 9.994405453289277E-1
44 11 9.342575119121275E-1
44 21 9.89800192740558E-1
44 25 9.993512084921182E-1
44 26 4.8351037637936917E-1
44 32 9.260610303482898E-1
44 37 9.963420550245569E-1
44 64 9.974224083306621E-1
44 67 4.843231978786452E-1
44 83 9.815738636545662E-1
44 110 9.889242724032425E-1
44 113 4.8063690130734893E-1
44 119 9.949802510402144E-1
44 121 9.745564482242373E-1
45 8 9.996556969770459E-1
45 15 9.737831173092426E-1
45 16 4.9071991101792994E-1
45 18 9.944129217968618E-1
45 22 4.851670489509119E-1
45 24 4.7959681284913525E-1
45 28 9.823487831784511E-1
45 36 4.839553080882778E-1
45 49 4.778724895377747E-1
45 62 9.996895361185559E-1
45 63 4.856565224676114E-1
45 74 9.96779639967385E-1
45 75 4.8558288975243324E-1
45 104 9.98101035818972E-1
45 118 4.7950418942106665E-1
45 123 9.857918764816654E-1
45 124 9.982004150241857E-1
45 125 9.992909606960084E-1
46 5 3.822215924690909E-1
46 11 3.970354406717175E-1
46 13 4.243577693995559E-1
46 23 3.656124909100859E-1
46 32 3.996898621602544E-1
46 42 3.7704448335159263E-1
46 43 4.142118853622648E-1
46 66 4.2138841031317176E-1
46 88 3.8417572171123354E-1
46 94 4.285742605068809E-1
46 96 9.343461879902326E-1
46 97 9.108455979806976E-1
46 105 4.3017853042662635E-1
46 113 3.61498446760819E-1
47 9 9.234132234714226E-1
47 19 4.045193450472621E-1
47 27 9.681619540622975E-1
47 33 9.472506667832853E-1
47 35 4.1133520207052016E-1
47 48 4.7631350923397314E-1
47 50 4.14546670175135E-1
47 51 4.6031335335036355E-1
47 52 9.887024381237939E-1
47 54 4.414022576174263E-1
47 56 4.6892358747667845E-1
47 59 3.993197485936286E-1
47 65 9.721785925732348E-1
47 70 4.515655358638183E-1
47 72 4.5805583772646974E-1
47 79 4.6510974268204824E-1
47 90 4.732471248178839E-1
47 99 9.936201887632629E-1
47 100 3.444304387137386E-1
47 106 9.728808104939234E-1
47 117 9.468839332265695E-1
47 122 4.022026798216516E-1
48 16 4.766781752307632E-1
48 29 9.910546631685307E-1
48 33 9.804242201392869E-1
48 35 3.4906020131148296E-1
48 41 4.7204293050938917E-1
48 47 4.7631350923397314E-1
48 51 9.869315851558347E-1
48 52 4.5032469208432363E-1
48 56 9.959079182677979E-1
48 65 9.972057024288306E-1
48 70 4.7352092196984974E-1
48 72 9.939150799045583E-1
48 75 4.8102627305889034E-1
48 77 4.842778382661371E-1
48 79 9.969115318871091E-1
48 86 4.8707382384991366E-1
48 90 9.976264167377672E-1
48 99 9.802979577233455E-1
48 106 9.966054471755158E-1
48 109 4.6755936037185436E-1
49 8 4.7970352655027365E-1
49 14 9.921580790864263E-1
49 15 4.7395141039363836E-1
49 16 4.818412300986634E-1
49 18 9.76042752034104E-1
49 20 9.940394302721631E-1
49 24 4.701225054802473E-1
49 28 4.7701891843770383E-1
49 36 9.665431749736203E-1
49 40 4.3307839881004984E-1
49 45 4.778724895377747E-1
49 82 9.879298751864567E-1
49 95 4.584798022983818E-1
49 102 9.565987419354391E-1
49 104 4.7835612166686814E-1
49 109 9.82291644897406E-1
49 115 9.583110139428697E-1
49 116 9.921128693588707E-1
49 118 4.609308337692596E-1
49 124 4.831419147378533E-1
50 3 3.812986848620871E-1
50 9 4.382912544125132E-1
50 19 8.534785196622185E-1
50 27 9.037258285860974E-1
50 47 4.14546670175135E-1
50 52 8.915007428962378E-1
50 54 8.801134851669592E-1
50 59 9.907064560406754E-1
50 61 8.661308486302635E-1
50 99 3.8943112280909703E-1
50 100 9.244987948008704E-1
50 106 3.666942694402669E-1
50 117 9.321015993032501E-1
50 122 9.974459377113378E-1
51 3 4.83470626126706E-1
51 9 4.6087170189089915E-1
51 16 9.873384126741038E-1
51 22 4.870097347366955E-1
51 29 9.973549382110153E-1
51 33 4.687491099056644E-1
51 47 4.6031335335036355E-1
51 48 9.869315851558347E-1
51 56 9.974365927931799E-1
51 61 4.417377365173202E-1
51 63 9.867499333833426E-1
51 65 9.778758304043677E-1
51 70 4.450353623510101E-1
51 72 9.925749563065553E-1
51 75 9.93137135499323E-1
51 77 9.95642113542961E-1
51 79 9.944535008814627E-1
51 86 9.977795751603201E-1
51 90 9.756695483099094E-1
51 99 4.7641236819312655E-1
51 103 4.874310732958666E-1
51 106 9.820707333485837E-1
51 123 9.82753292283655E-1
52 9 9.216777876383949E-1
52 19 4.3606400804841644E-1
52 27 9.931923269143674E-1
52 33 4.4672745791292945E-1
52 35 4.191957614578992E-1
52 47 9.887024381237939E-1
52 48 4.5032469208432363E-1
52 50 8.915007428962378E-1
52 54 9.32612694483935E-1
52 56 4.4265840507315113E-1
52 59 4.3558654902026134E-1
52 61 4.334700272421194E-1
52 65 4.6428613972714894E-1
52 90 4.45202597691935E-1
52 99 9.661040003438468E-1
52 100 3.8787343085851966E-1
52 106 4.656517729054589E-1
52 117 9.835903092337063E-1
52 122 8.733594584040333E-1
53 5 4.6830890642984613E-1
53 7 9.6584156609978E-1
53 10 4.697376900986052E-1
53 13 9.384235346471701E-1
53 34 4.466355107485155E-1
53 58 4.732144662011796E-1
53 68 9.325562125212657E-1
53 81 9.743804756529933E-1
53 85 4.6048773103000396E-1
53 89 9.484400166231297E-1
53 91 4.260074725161067E-1
53 94 9.544933797859086E-1
53 98 9.678449447193755E-1
53 108 9.353389230258619E-1
53 114 9.734881535506437E-1
54 9 3.8164592737637804E-1
54 19 9.885576139560077E-1
54 27 9.675476641676235E-1
54 35 9.127165582221078E-1
54 47 4.414022576174263E-1
54 50 8.801134851669592E-1
54 52 9.32612694483935E-1
54 59 9.047952385626711E-1
54 65 3.822809115807498E-1
54 99 4.155200431003796E-1
54 100 8.880089695088712E-1
54 106 3.821175753294056E-1
54 117 9.751087434650535E-1
54 122 8.849276699020523E-1
55 1 9.981328749454031E-1
55 10 4.8833828588284184E-1
55 17 9.834210779355965E-1
55 30 9.837598176204592E-1
55 31 9.991368816721317E-1
55 34 9.926021926592391E-1
55 39 9.945784249704976E-1
55 57 9.971713000677157E-1
55 58 4.859677249695913E-1
55 60 9.998921982493774E-1
55 80 9.990516007188911E-1
55 84 9.9706238581954E-1
55 87 9.917533758698475E-1
55 93 4.8915533533355543E-1
55 111 9.980634536501058E-1
55 120 9.995192184248335E-1
55 126 9.913303875109553E-1
56 3 4.76151990832502E-1
56 9 4.56792722567437E-1
56 16 4.8764123332357034E-1
56 29 9.977574140115983E-1
56 33 4.796512750058859E-1
56 41 4.60472415604009E-1
56 47 4.6892358747667845E-1
56 48 9.959079182677979E-1
56 51 9.974365927931799E-1
56 52 4.4265840507315113E-1
56 61 4.3371107436181644E-1
56 63 4.8645657844404294E-1
56 65 9.896154106181756E-1
56 70 4.588433023775763E-1
56 72 9.963360553523652E-1
56 75 9.824506300378644E-1
56 77 9.867618431644031E-1
56 79 9.987432053986908E-1
56 86 9.90478869967244E-1
56 90 9.884815009093675E-1
56 99 9.681162024906704E-1
56 106 9.917321700928521E-1
56 109 4.6757554710260846E-1
57 1 9.91977384154407E-1
57 4 9.805082613207666E-1
57 17 4.866580878002254E-1
57 30 4.860152122860389E-1
57 31 9.974394985830342E-1
57 34 4.939889822252563E-1
57 39 9.986777527565471E-1
57 55 9.971713000677157E-1
57 60 9.969486482137178E-1
57 71 9.913010305654911E-1
57 80 9.992604196488989E-1
57 84 9.89240799225781E-1
57 87 9.970456399462424E-1
57 93 4.8300741868940844E-1
57 111 9.906803102918055E-1
57 120 9.989929296243024E-1
57 126 9.953111731965268E-1
58 1 9.843039009483716E-1
58 5 9.75034443451803E-1
58 7 9.903344386418623E-1
58 10 9.987768507809976E-1
58 31 4.868971182486134E-1
58 34 4.930790264665216E-1
58 53 4.732144662011796E-1
58 55 4.859677249695913E-1
58 60 4.8502729845194525E-1
58 68 4.4804409459336764E-1
58 81 9.926992273158384E-1
58 84 9.86789498605077E-1
58 85 9.908775303249686E-1
58 94 4.5180186732155836E-1
58 98 9.945637360128502E-1
58 108 4.7603076316356063E-1
58 111 4.915489655774617E-1
58 114 9.944612542951822E-1
59 3 3.46220670190516E-1
59 9 4.08634539643489E-1
59 19 8.94898086403133E-1
59 27 8.971495016740588E-1
59 47 3.993197485936286E-1
59 50 9.907064560406754E-1
59 52 4.3558654902026134E-1
59 54 9.047952385626711E-1
59 61 3.996863433711744E-1
59 99 3.703754771257054E-1
59 100 9.665316160221333E-1
59 106 3.4287776939439163E-1
59 117 9.301732362941078E-1
59 122 9.973170189888407E-1
60 1 9.97483456733135E-1
60 10 4.872299655698081E-1
60 17 9.856703236438109E-1
60 30 9.857632633318882E-1
60 31 9.984411231472262E-1
60 34 9.90803313772326E-1
60 39 9.936257080345261E-1
60 55 9.998921982493774E-1
60 57 9.969486482137178E-1
60 58 4.8502729845194525E-1
60 76 4.650261312034668E-1
60 80 9.986446862710916E-1
60 84 9.965136874559793E-1
60 87 9.904765193172818E-1
60 93 4.9037251976121493E-1
60 111 9.978681672215339E-1
60 120 9.992942549692659E-1
60 126 9.897013607834605E-1
60 127 4.63560690854644E-1
61 3 9.666082492122305E-1
61 9 9.899769569896175E-1
61 22 4.6496880227227955E-1
61 50 8.661308486302635E-1
61 51 4.417377365173202E-1
61 52 4.334700272421194E-1
61 56 4.3371107436181644E-1
61 59 3.996863433711744E-1
61 63 4.5687447734393855E-1
61 75 4.4546535409314636E-1
61 77 4.4299703923286265E-1
61 86 4.473518369193826E-1
61 100 3.244427771093349E-1
61 103 4.705731151645987E-1
61 106 4.3289445515127106E-1
61 122 4.15768681184908E-1
61 123 4.386653447592612E-1
62 8 9.987196777637259E-1
62 15 9.688175479207317E-1
62 16 9.822618200774841E-1
62 18 9.934123011083793E-1
62 22 9.750687408025037E-1
62 24 4.765214681354822E-1
62 28 9.78144251575979E-1
62 36 4.808240826444198E-1
62 45 9.996895361185559E-1
62 63 4.8743103318079123E-1
62 74 9.984540889533832E-1
62 75 4.866828488831137E-1
62 103 4.831230552704522E-1
62 104 9.986120069711901E-1
62 118 4.769098815259889E-1
62 123 9.872938551363762E-1
62 124 9.964020305754803E-1
62 125 9.999135688309289E-1
63 3 9.865843105303177E-1
63 9 4.660014571590411E-1
63 16 9.936427015599082E-1
63 18 9.796098894082157E-1
63 22 9.975016881215644E-1
63 29 4.880364809893039E-1
63 45 4.856565224676114E-1
63 51 9.867499333833426E-1
63 56 4.8645657844404294E-1
63 61 4.5687447734393855E-1
63 62 4.8743103318079123E-1
63 74 9.821398834473434E-1
63 75 9.977701785800971E-1
63 77 9.959725578944346E-1
63 86 9.952133410206767E-1
63 103 9.964898150141059E-1
63 104 9.838256677133953E-1
63 123 9.959447459142772E-1
63 125 9.757108488862588E-1
64 6 9.984402789695525E-1
64 11 4.594018438033382E-1
64 21 9.809087399644336E-1
64 25 9.98592386624532E-1
64 26 9.818691211019822E-1
64 32 4.5484732692166463E-1
64 37 9.995894367786471E-1
64 42 4.6633740996051914E-1
64 44 9.974224083306621E-1
64 67 9.824410169305416E-1
64 71 4.6962535021424046E-1
64 83 9.916900286018561E-1
64 110 9.926952328965352E-1
64 113 4.8743691649009113E-1
64 119 9.990052830630535E-1
64 121 9.870140258425321E-1
65 19 3.382291625797836E-1
65 27 4.4301725074771225E-1
65 29 9.798929367168128E-1
65 33 9.82799709813931E-1
65 35 3.679400903793642E-1
65 41 4.674245609765858E-1
65 47 9.721785925732348E-1
65 48 9.972057024288306E-1
65 51 9.778758304043677E-1
65 52 4.6428613972714894E-1
65 54 3.822809115807498E-1
65 56 9.896154106181756E-1
65 70 9.476281154646117E-1
65 72 9.830853977744283E-1
65 77 4.7727790361034456E-1
65 79 9.888361415164629E-1
65 86 4.8132498241987304E-1
65 90 9.945178880511699E-1
65 99 9.922248615571175E-1
65 106 9.99377107145294E-1
65 117 4.2585335447952183E-1
66 4 4.7759835977100695E-1
66 11 4.636252101479769E-1
66 13 4.7219383518855135E-1
66 23 4.8440563135767256E-1
66 26 4.7697369871244644E-1
66 32 4.611602202950024E-1
66 42 9.80108087600367E-1
66 43 9.857948288772758E-1
66 46 4.2138841031317176E-1
66 67 4.8056739439792945E-1
66 83 4.77570199075903E-1
66 88 9.774966080308106E-1
66 92 4.7867619117171273E-1
66 94 4.4802695743295967E-1
66 96 4.450090015518088E-1
66 97 9.842260176937938E-1
66 105 9.940313951793012E-1
66 110 9.6317602221859E-1
66 113 9.759605176940924E-1
66 121 4.783861515293911E-1
67 4 4.873400700266898E-1
67 6 4.853385360883857E-1
67 21 4.746294576916485E-1
67 23 9.785013977057109E-1
67 25 9.713141848734616E-1
67 26 9.996159325051951E-1
67 37 9.861245534822922E-1
67 42 9.816325033812962E-1
67 44 4.843231978786452E-1
67 64 9.824410169305416E-1
67 66 4.8056739439792945E-1
67 71 9.835079697556711E-1
67 83 9.982256988005612E-1
67 87 4.8548099366702246E-1
67 88 4.840067531545003E-1
67 105 4.7257760671485427E-1
67 110 9.894636586379684E-1
67 113 9.980949736773511E-1
67 119 9.885000642609045E-1
67 121 9.996316172565363E-1
68 2 4.445739792573654E-1
68 7 9.472236964324442E-1
68 12 9.139273399977607E-1
68 38 9.854502984157996E-1
68 40 4.3763260383330094E-1
68 53 9.325562125212657E-1
68 58 4.4804409459336764E-1
68 73 9.919729339586403E-1
68 81 4.5036751753035276E-1
68 85 4.576388842273976E-1
68 89 4.346677720706773E-1
68 91 8.970887604013567E-1
68 95 9.575948020263723E-1
68 101 9.692356192236231E-1
68 102 4.5996042976107787E-1
68 108 9.820249418674337E-1
68 114 4.634563476382928E-1
69 2 9.823196379280899E-1
69 12 9.488889522764153E-1
69 17 4.6219036186271645E-1
69 30 4.627280362027771E-1
69 76 9.834561198169839E-1
69 78 9.944772344888735E-1
69 85 4.496190016890307E-1
69 93 4.675082499437941E-1
69 101 4.2969893080228594E-1
69 107 9.973462932909681E-1
69 108 4.527895191053538E-1
69 111 4.3135170260102007E-1
69 112 9.995222015502407E-1
69 127 9.847564626323396E-1
70 29 4.562124091841441E-1
70 33 9.898919217085917E-1
70 35 3.9109530453065405E-1
70 41 9.902891463680334E-1
70 47 4.515655358638183E-1
70 48 4.7352092196984974E-1
70 51 4.450353623510101E-1
70 56 4.588433023775763E-1
70 65 9.476281154646117E-1
70 72 4.655884851845436E-1
70 79 4.654515087704435E-1
70 90 9.660824754680076E-1
70 99 4.66421795385771E-1
70 106 4.680931203022478E-1
70 109 4.5815067301222606E-1
71 4 9.934500536493891E-1
71 6 4.5992336879971474E-1
71 23 9.895879668667555E-1
71 25 4.605090550733146E-1
71 26 9.860951971822779E-1
71 31 9.876431220064369E-1
71 34 4.915332316559739E-1
71 37 4.720639304317524E-1
71 39 9.963237625546303E-1
71 42 9.840604400785969E-1
71 43 4.7379019576206965E-1
71 57 9.913010305654911E-1
71 64 4.6962535021424046E-1
71 67 9.835079697556711E-1
71 80 9.892984120651153E-1
71 83 4.861893459370342E-1
71 87 9.981655796376424E-1
71 88 4.8860200995252456E-1
71 92 9.899192509436983E-1
71 113 4.904018452491871E-1
71 119 4.740816933885493E-1
71 120 9.870670222431441E-1
71 121 4.8987256930991724E-1
71 126 9.976244143985166E-1
72 16 4.8758352099374297E-1
72 20 9.765812956206809E-1
72 29 9.985971922133076E-1
72 33 4.819388231219168E-1
72 41 4.712662554450645E-1
72 47 4.5805583772646974E-1
72 48 9.939150799045583E-1
72 51 9.925749563065553E-1
72 56 9.963360553523652E-1
72 65 9.830853977744283E-1
72 70 4.655884851845436E-1
72 75 4.888012735257818E-1
72 77 9.827615446107716E-1
72 79 9.991702365563021E-1
72 86 9.845045017240235E-1
72 90 9.908092761164695E-1
72 99 4.7681737830068E-1
72 106 9.831406067017752E-1
72 109 4.8064469195136256E-1
72 115 4.5086056769369537E-1
72 123 4.827573629786648E-1
73 2 8.937953218488829E-1
73 7 4.511069858640388E-1
73 12 9.299620035952001E-1
73 38 9.983286139283178E-1
73 40 9.05955106995683E-1
73 68 9.919729339586403E-1
73 82 4.5715652935009127E-1
73 89 4.201444354153078E-1
73 91 9.113833342151143E-1
73 95 9.856869440207082E-1
73 101 9.898888241483519E-1
73 102 9.610813629351547E-1
73 108 9.570456232007511E-1
73 115 4.4681624894002886E-1
73 116 4.5089053017637576E-1
74 3 4.77218443912062E-1
74 8 9.943721540412378E-1
74 15 4.7737302051937147E-1
74 16 9.835450628408391E-1
74 18 9.899122442872448E-1
74 22 9.845398216681374E-1
74 28 4.829557118422441E-1
74 45 9.96779639967385E-1
74 62 9.984540889533832E-1
74 63 9.821398834473434E-1
74 75 9.779730609844854E-1
74 77 4.8640326911344994E-1
74 103 9.774296260333122E-1
74 104 9.979782616543753E-1
74 118 4.6933212975664274E-1
74 123 9.89759214747403E-1
74 124 9.902065870305129E-1
74 125 9.990191852854932E-1
75 3 4.879577661295412E-1
75 8 4.833575842062313E-1
75 9 4.582978399229409E-1
75 16 9.978935800133087E-1
75 18 9.847080368022765E-1
75 20 4.8738284621993083E-1
75 22 9.906945894144725E-1
75 29 9.871222566322504E-1
75 45 4.8558288975243324E-1
75 48 4.8102627305889034E-1
75 51 9.93137135499323E-1
75 56 9.824506300378644E-1
75 61 4.4546535409314636E-1
75 62 4.866828488831137E-1
75 63 9.977701785800971E-1
75 72 4.888012735257818E-1
75 74 9.779730609844854E-1
75 77 9.996492670104725E-1
75 79 9.777469769927986E-1
75 86 9.985620703187126E-1
75 103 9.888722763465025E-1
75 104 9.837750033278856E-1
75 106 4.772105321157882E-1
75 123 9.973573421072008E-1
75 125 4.866957496038556E-1
76 2 9.452102792163849E-1
76 17 9.773783768584424E-1
76 30 9.778507405810242E-1
76 60 4.650261312034668E-1
76 69 9.834561198169839E-1
76 78 9.963875569144135E-1
76 84 4.6465476565610164E-1
76 85 4.7612447624312787E-1
76 93 9.832114348141615E-1
76 107 9.759744459856758E-1
76 108 9.288868753239922E-1
76 111 4.677800651976986E-1
76 112 9.774835122843706E-1
76 127 9.99946440132979E-1
77 3 4.8645770157231033E-1
77 9 4.5744799090931065E-1
77 16 9.973388168185333E-1
77 18 9.827804531848388E-1
77 20 4.8846352170915397E-1
77 22 9.871984354690763E-1
77 29 9.90991029116562E-1
77 48 4.842778382661371E-1
77 51 9.95642113542961E-1
77 56 9.867618431644031E-1
77 61 4.4299703923286265E-1
77 63 9.959725578944346E-1
77 65 4.7727790361034456E-1
77 72 9.827615446107716E-1
77 74 4.8640326911344994E-1
77 75 9.996492670104725E-1
77 79 9.828841773731126E-1
77 86 9.993478163169615E-1
77 90 4.7691630150254977E-1
77 103 9.856434249522071E-1
77 104 9.800614225368539E-1
77 106 4.803563104923322E-1
77 123 9.956619140544922E-1
77 125 4.8416791290823435E-1
78 2 9.688358225763141E-1
78 12 9.338312835261159E-1
78 17 4.785259074942964E-1
78 30 4.792731570543712E-1
78 69 9.944772344888735E-1
78 76 9.963875569144135E-1
78 84 4.5093650924017653E-1
78 85 4.6869138111935155E-1
78 93 4.8271309045307315E-1
78 107 9.908664651357564E-1
78 108 9.313436994151519E-1
78 111 4.541371041649991E-1
78 112 9.90984478373289E-1
78 127 9.967524166797339E-1
79 16 4.8637965323992116E-1
79 20 4.842748357755211E-1
79 29 9.983923514923242E-1
79 33 9.665573301610492E-1
79 41 4.686565761038184E-1
79 47 4.6510974268204824E-1
79 48 9.969115318871091E-1
79 51 9.944535008814627E-1
79 56 9.987432053986908E-1
79 65 9.888361415164629E-1
79 70 4.654515087704435E-1
79 72 9.991702365563021E-1
79 75 9.777469769927986E-1
79 77 9.828841773731126E-1
79 86 9.859040008503975E-1
79 90 9.925831281322947E-1
79 99 4.819577119844292E-1
79 106 9.894185661268117E-1
79 109 4.749571598620329E-1
80 1 9.960707012752912E-1
80 4 9.822180962907939E-1
80 17 4.880521257859968E-1
80 30 4.879380522630437E-1
80 31 9.994259857461415E-1
80 34 9.926093728370019E-1
80 39 9.981355065940419E-1
80 55 9.990516007188911E-1
80 57 9.992604196488989E-1
80 60 9.986446862710916E-1
80 71 9.892984120651153E-1
80 84 9.940272976298274E-1
80 87 9.962853086505635E-1
80 92 4.895418924336974E-1
80 93 4.848287852666598E-1
80 111 9.948626169937776E-1
80 120 9.998866279699464E-1
80 126 9.955826100404611E-1
81 1 4.801153799870489E-1
81 5 9.836798404920901E-1
81 7 9.875614843280051E-1
81 10 9.917869910916981E-1
81 13 9.596165111473375E-1
81 34 4.849421162835283E-1
81 53 9.743804756529933E-1
81 58 9.926992273158384E-1
81 68 4.5036751753035276E-1
81 84 4.814946360427068E-1
81 85 9.716116433012322E-1
81 89 4.3001076603634913E-1
81 92 4.767452979031326E-1
81 94 4.723996456294167E-1
81 98 9.996008924951393E-1
81 108 4.713442238577479E-1
81 111 4.782129472371893E-1
81 114 9.968742245800776E-1
82 14 9.955341900392402E-1
82 15 4.7086366387527856E-1
82 18 4.6930072237209436E-1
82 20 4.827820193559044E-1
82 24 9.424643170980399E-1
82 28 4.711333498602534E-1
82 36 9.663032553057773E-1
82 38 4.637652515132027E-1
82 40 4.5387505009920004E-1
82 49 9.879298751864567E-1
82 73 4.5715652935009127E-1
82 91 4.292000464238293E-1
82 95 9.664776054440112E-1
82 101 9.443819759331604E-1
82 102 9.899558458224837E-1
82 109 9.714552931301653E-1
82 115 9.73076815387202E-1
82 116 9.99435982971696E-1
83 6 9.830813670864768E-1
83 11 4.528916034496688E-1
83 21 4.8195700800825786E-1
83 23 4.8255340613607367E-1
83 25 9.835569977511527E-1
83 26 9.97594315700505E-1
83 32 4.4819686076462545E-1
83 37 9.942308179152186E-1
83 42 4.8505920169846606E-1
83 44 9.815738636545662E-1
83 64 9.916900286018561E-1
83 66 4.77570199075903E-1
83 67 9.982256988005612E-1
83 71 4.861893459370342E-1
83 105 4.721155358666133E-1
83 110 9.948734545441388E-1
83 113 9.948572028278366E-1
83 119 9.957232130949438E-1
83 121 9.993972994383372E-1
84 1 9.997379374728474E-1
84 7 4.807526136349607E-1
84 10 9.892179258499114E-1
84 17 4.907290179748185E-1
84 30 4.9198401348217197E-1
84 31 9.966391982351798E-1
84 34 9.95736513393785E-1
84 39 9.87333339928398E-1
84 55 9.9706238581954E-1
84 57 9.89240799225781E-1
84 58 9.86789498605077E-1
84 60 9.965136874559793E-1
84 76 4.6465476565610164E-1
84 78 4.5093650924017653E-1
84 80 9.940272976298274E-1
84 81 4.814946360427068E-1
84 85 9.847004694865421E-1
84 93 4.889960281215381E-1
84 98 4.8451494931540096E-1
84 111 9.996715454404971E-1
84 114 4.824286424319682E-1
84 120 9.947182904695385E-1
84 126 4.9296799931894164E-1
84 127 4.6297102855026095E-1
85 1 4.902563689868681E-1
85 7 9.893854502616579E-1
85 10 9.850512908599511E-1
85 17 9.751229440973298E-1
85 30 9.810815539492412E-1
85 34 4.859359362614305E-1
85 53 4.6048773103000396E-1
85 58 9.908775303249686E-1
85 68 4.576388842273976E-1
85 69 4.496190016890307E-1
85 76 4.7612447624312787E-1
85 78 4.6869138111935155E-1
85 81 9.716116433012322E-1
85 84 9.847004694865421E-1
85 93 9.771018849925195E-1
85 98 9.734609260922586E-1
85 107 4.501537778216716E-1
85 108 9.722181708495492E-1
85 111 4.9188248127523765E-1
85 112 4.441750192183519E-1
85 114 9.833106186660958E-1
85 127 4.7456044615574117E-1
86 3 9.763250403950898E-1
86 9 4.6263387437405545E-1
86 16 9.940638553711605E-1
86 18 4.87775027152399E-1
86 20 4.855104067975634E-1
86 22 9.862402106018882E-1
86 29 9.923702627551778E-1
86 48 4.8707382384991366E-1
86 51 9.977795751603201E-1
86 56 9.90478869967244E-1
86 61 4.473518369193826E-1
86 63 9.952133410206767E-1
86 65 4.8132498241987304E-1
86 72 9.845045017240235E-1
86 75 9.985620703187126E-1
86 77 9.993478163169615E-1
86 79 9.859040008503975E-1
86 90 4.7972264580252433E-1
86 99 4.6727790230072E-1
86 103 9.859892250923714E-1
86 106 4.843587435059846E-1
86 123 9.920882735296148E-1
87 1 9.880037509577893E-1
87 4 9.917853115988559E-1
87 23 9.852248664388474E-1
87 26 4.873051476766787E-1
87 31 9.951877526706778E-1
87 34 9.899925409390453E-1
87 39 9.99652570929109E-1
87 42 4.8838200438293655E-1
87 55 9.917533758698475E-1
87 57 9.970456399462424E-1
87 60 9.904765193172818E-1
87 67 4.8548099366702246E-1
87 71 9.981655796376424E-1
87 80 9.962853086505635E-1
87 88 4.859627872372455E-1
87 92 9.885073721560672E-1
87 120 9.949048316120254E-1
87 126 9.995034844998403E-1
88 4 9.938963518199184E-1
88 5 9.871330975685091E-1
88 13 4.821084076043107E-1
88 23 9.975416020865181E-1
88 34 4.8745141749200155E-1
88 39 4.834486980318043E-1
88 42 9.980427900021942E-1
88 43 9.934638426437414E-1
88 46 3.8417572171123354E-1
88 66 9.774966080308106E-1
88 67 4.840067531545003E-1
88 71 4.8860200995252456E-1
88 87 4.859627872372455E-1
88 92 9.957766344661948E-1
88 94 4.593529692530228E-1
88 96 3.9421899425158496E-1
88 97 4.785823543796762E-1
88 105 4.747680564732888E-1
88 113 9.781626112824949E-1
88 126 4.888474570501615E-1
89 5 4.0513844071759114E-1
89 7 4.2314046168109953E-1
89 13 4.257726673007688E-1
89 38 4.0550476078041753E-1
89 40 4.304071061123187E-1
89 53 9.484400166231297E-1
89 68 4.346677720706773E-1
89 73 4.201444354153078E-1
89 81 4.3001076603634913E-1
89 91 9.24212358441015E-1
89 94 9.068243414918707E-1
89 98 4.2356855826691125E-1
89 108 4.122327619687487E-1
89 114 4.282681275904827E-1
90 29 9.843992253864519E-1
90 33 9.904114822177763E-1
90 35 3.570741364246654E-1
90 41 9.635964287911393E-1
90 47 4.732471248178839E-1
90 48 9.976264167377672E-1
90 51 9.756695483099094E-1
90 52 4.45202597691935E-1
90 56 9.884815009093675E-1
90 65 9.945178880511699E-1
90 70 9.660824754680076E-1
90 72 9.908092761164695E-1
90 77 4.7691630150254977E-1
90 79 9.925831281322947E-1
90 86 4.7972264580252433E-1
90 99 9.762476897179554E-1
90 106 9.915093034393507E-1
90 109 4.71999237018288E-1
91 38 8.954799362977581E-1
91 40 9.887038111506097E-1
91 41 4.072433301992781E-1
91 53 4.260074725161067E-1
91 68 8.970887604013567E-1
91 73 9.113833342151143E-1
91 82 4.292000464238293E-1
91 89 9.24212358441015E-1
91 95 9.241937590741323E-1
91 101 4.351542216616115E-1
91 102 4.486820366245163E-1
91 109 4.2629602968779856E-1
91 115 9.258074617481798E-1
91 116 4.2646376617457427E-1
92 1 4.88588392413364E-1
92 4 9.996112970056185E-1
92 5 9.844308077454151E-1
92 13 4.73403706369603E-1
92 23 9.987745693211011E-1
92 31 4.91020913372268E-1
92 34 9.899113528008322E-1
92 39 4.927862521510893E-1
92 42 9.950217619475622E-1
92 43 9.79508783234643E-1
92 66 4.7867619117171273E-1
92 71 9.899192509436983E-1
92 80 4.895418924336974E-1
92 81 4.767452979031326E-1
92 87 9.885073721560672E-1
92 88 9.957766344661948E-1
92 94 4.4860751470365645E-1
92 97 4.637986814920075E-1
92 98 4.8057808813548514E-1
92 113 4.878514137656904E-1
92 126 9.924125850217839E-1
93 1 4.877293212904637E-1
93 2 4.4010229141039936E-1
93 17 9.994700768802619E-1
93 30 9.995137193094781E-1
93 31 4.846887830534017E-1
93 55 4.8915533533355543E-1
93 57 4.8300741868940844E-1
93 60 4.9037251976121493E-1
93 69 4.675082499437941E-1
93 76 9.832114348141615E-1
93 78 4.8271309045307315E-1
93 80 4.848287852666598E-1
93 84 4.889960281215381E-1
93 85 9.771018849925195E-1
93 107 4.618934123767829E-1
93 111 4.9110660888983343E-1
93 112 4.6206424299570564E-1
93 120 4.865868634884233E-1
93 127 9.817410456777519E-1
94 5 4.7820600542094804E-1
94 10 4.5481234891191563E-1
94 13 9.897964828233292E-1
94 43 4.733017443352462E-1
94 46 4.285742605068809E-1
94 53 9.544933797859086E-1
94 58 4.5180186732155836E-1
94 66 4.4802695743295967E-1
94 81 4.723996456294167E-1
94 88 4.593529692530228E-1
94 89 9.068243414918707E-1
94 92 4.4860751470365645E-1
94 97 9.433865187896704E-1
94 98 4.708495810025333E-1
94 114 4.607669998013575E-1
95 12 9.12979930876331E-1
95 14 4.73089459635247E-1
95 36 4.541578987611873E-1
95 38 9.885022388029541E-1
95 40 9.397690387769384E-1
95 49 4.584798022983818E-1
95 68 9.575948020263723E-1
95 73 9.856869440207082E-1
95 82 9.664776054440112E-1
95 91 9.241937590741323E-1
95 101 9.88085399398709E-1
95 102 9.928260825155655E-1
95 115 9.517268856227441E-1
95 116 9.586305709833001E-1
96 11 9.37835561076738E-1
96 13 3.974544118744478E-1
96 21 4.25344131000442E-1
96 32 9.433707809787335E-1
96 42 3.9592849409844155E-1
96 43 4.159899791146879E-1
96 46 9.343461879902326E-1
96 66 4.450090015518088E-1
96 88 3.9421899425158496E-1
96 97 9.082571894119136E-1
96 105 4.637683152645975E-1
96 110 4.1270900760208873E-1
96 113 4.006600498055381E-1
96 119 3.932653117724022E-1
97 4 4.6046522838505766E-1
97 5 4.7186777662686585E-1
97 13 9.701148136336614E-1
97 23 4.6871440859425795E-1
97 42 4.7515496629860915E-1
97 43 9.824841366611905E-1
97 46 9.108455979806976E-1
97 66 9.842260176937938E-1
97 88 4.785823543796762E-1
97 92 4.637986814920075E-1
97 94 9.433865187896704E-1
97 96 9.082571894119136E-1
97 105 9.778093673822764E-1
97 113 4.6337723580125995E-1
98 1 4.833846217824351E-1
98 5 9.868186776912303E-1
98 7 9.859250054098173E-1
98 10 9.946390164894855E-1
98 13 9.602192371652132E-1
98 34 4.880794036449172E-1
98 53 9.678449447193755E-1
98 58 9.945637360128502E-1
98 81 9.996008924951393E-1
98 84 4.8451494931540096E-1
98 85 9.734609260922586E-1
98 89 4.2356855826691125E-1
98 92 4.8057808813548514E-1
98 94 4.708495810025333E-1
98 108 4.693113552113732E-1
98 111 4.814207773220421E-1
98 114 9.958065634112262E-1
99 9 4.5958699847201595E-1
99 19 3.745870600463389E-1
99 27 9.347765278732619E-1
99 29 4.7530638637931094E-1
99 33 9.721607112694776E-1
99 35 3.944718038475384E-1
99 41 4.5221869390450437E-1
99 47 9.936201887632629E-1
99 48 9.802979577233455E-1
99 50 3.8943112280909703E-1
99 51 4.7641236819312655E-1
99 52 9.661040003438468E-1
99 54 4.155200431003796E-1
99 56 9.681162024906704E-1
99 59 3.703754771257054E-1
99 65 9.922248615571175E-1
99 70 4.66421795385771E-1
99 72 4.7681737830068E-1
99 79 4.819577119844292E-1
99 86 4.6727790230072E-1
99 90 9.762476897179554E-1
99 100 3.1100164510425293E-1
99 106 9.92033016790374E-1
99 117 4.5320286257951425E-1
99 122 3.7489191775042063E-1
100 9 3.3626773103909463E-1
100 19 9.134114965417028E-1
100 27 4.118080885782387E-1
100 35 3.363301394198172E-1
100 47 3.444304387137386E-1
100 50 9.244987948008704E-1
100 52 3.8787343085851966E-1
100 54 8.880089695088712E-1
100 59 9.665316160221333E-1
100 61 3.244427771093349E-1
100 99 3.1100164510425293E-1
100 106 2.785661147688769E-1
100 117 8.654216565682079E-1
100 122 9.479455353503976E-1
101 2 9.250722597072507E-1
101 12 9.625047078810469E-1
101 14 4.65807253006847E-1
101 24 4.5346932511495347E-1
101 36 4.5777773178002934E-1
101 38 9.963980497521577E-1
101 40 4.4059801238504787E-1
101 68 9.692356192236231E-1
101 69 4.2969893080228594E-1
101 73 9.898888241483519E-1
101 82 9.443819759331604E-1
101 91 4.351542216616115E-1
101 95 9.88085399398709E-1
101 102 9.776227731181765E-1
101 107 4.457723528502046E-1
101 108 9.337383912028587E-1
101 112 4.3164881909566266E-1
101 115 9.005386742432057E-1
101 116 4.6660508996630434E-1
102 12 4.534197280766547E-1
102 14 9.7737471115435E-1
102 20 4.6034494544020504E-1
102 24 4.616516143350517E-1
102 36 4.723958129719109E-1
102 38 9.69314811185803E-1
102 40 9.291422930331411E-1
102 49 9.565987419354391E-1
102 68 4.5996042976107787E-1
102 73 9.610813629351547E-1
102 82 9.899558458224837E-1
102 91 4.486820366245163E-1
102 95 9.928260825155655E-1
102 101 9.776227731181765E-1
102 109 9.423506325471641E-1
102 115 9.67085000457679E-1
102 116 9.851489597320918E-1
103 3 9.955487971339636E-1
103 9 4.755210062571623E-1
103 16 4.9060656787093715E-1
103 18 4.82047573926969E-1
103 22 9.993025291932645E-1
103 51 4.874310732958666E-1
103 61 4.705731151645987E-1
103 62 4.831230552704522E-1
103 63 9.964898150141059E-1
103 74 9.774296260333122E-1
103 75 9.888722763465025E-1
103 77 9.856434249522071E-1
103 86 9.859892250923714E-1
103 104 9.742993877531192E-1
103 123 9.866264630933559E-1
103 125 4.8407669824583255E-1
104 3 4.7463977470629126E-1
104 8 9.965378076503615E-1
104 15 4.7971547556764815E-1
104 16 9.9071992218192E-1
104 18 9.96897224475911E-1
104 20 4.858661480481737E-1
104 22 9.818102563283458E-1
104 24 4.710881260350047E-1
104 28 4.851163685514453E-1
104 45 9.98101035818972E-1
104 49 4.7835612166686814E-1
104 62 9.986120069711901E-1
104 63 9.838256677133953E-1
104 74 9.979782616543753E-1
104 75 9.837750033278856E-1
104 77 9.800614225368539E-1
104 103 9.742993877531192E-1
104 118 4.703409838639557E-1
104 123 9.941681839332425E-1
104 124 9.941413284334305E-1
104 125 9.984202271659709E-1
105 11 9.591606426134016E-1
105 21 9.464594117350075E-1
105 23 4.695416561612737E-1
105 32 9.560538679539001E-1
105 42 4.7765130822230617E-1
105 43 9.633479690610369E-1
105 46 4.3017853042662635E-1
105 66 9.940313951793012E-1
105 67 4.7257760671485427E-1
105 83 4.721155358666133E-1
105 88 4.747680564732888E-1
105 96 4.637683152645975E-1
105 97 9.778093673822764E-1
105 110 9.623543856689702E-1
105 113 4.805621632489973E-1
105 121 4.7126181595894656E-1
106 9 4.600905184500947E-1
106 19 3.379789646655874E-1
106 27 4.439422712629789E-1
106 29 9.81775928331095E-1
106 33 9.757539313319913E-1
106 35 3.6234796633518884E-1
106 41 4.6181138108705616E-1
106 47 9.728808104939234E-1
106 48 9.966054471755158E-1
106 50 3.666942694402669E-1
106 51 9.820707333485837E-1
106 52 4.656517729054589E-1
106 54 3.821175753294056E-1
106 56 9.917321700928521E-1
106 59 3.4287776939439163E-1
106 61 4.3289445515127106E-1
106 65 9.99377107145294E-1
106 70 4.680931203022478E-1
106 72 9.831406067017752E-1
106 75 4.772105321157882E-1
106 77 4.803563104923322E-1
106 79 9.894185661268117E-1
106 86 4.843587435059846E-1
106 90 9.915093034393507E-1
106 99 9.92033016790374E-1
106 100 2.785661147688769E-1
106 117 4.2763703173154166E-1
106 122 3.498633016253219E-1
107 2 9.92678901859353E-1
107 12 9.685997794809266E-1
107 17 4.5587925724899075E-1
107 30 4.573589819797584E-1
107 38 4.406151388053632E-1
107 69 9.973462932909681E-1
107 76 9.759744459856758E-1
107 78 9.908664651357564E-1
107 85 4.501537778216716E-1
107 93 4.618934123767829E-1
107 101 4.457723528502046E-1
107 108 4.604738191316933E-1
107 112 9.979321274507736E-1
107 127 9.769960785194816E-1
108 2 4.5751087111679617E-1
108 7 9.825154587385437E-1
108 10 4.6813314165768016E-1
108 12 4.580655968478982E-1
108 38 9.50901836248099E-1
108 53 9.353389230258619E-1
108 58 4.7603076316356063E-1
108 68 9.820249418674337E-1
108 69 4.527895191053538E-1
108 73 9.570456232007511E-1
108 76 9.288868753239922E-1
108 78 9.313436994151519E-1
108 81 4.713442238577479E-1
108 85 9.722181708495492E-1
108 89 4.122327619687487E-1
108 98 4.693113552113732E-1
108 101 9.337383912028587E-1
108 107 4.604738191316933E-1
108 112 4.499553621140796E-1
108 114 9.654798946067241E-1
108 127 4.6299629167732337E-1
109 14 9.613112341214418E-1
109 20 9.781142476333522E-1
109 29 4.762459445890401E-1
109 33 4.6062899227176896E-1
109 40 4.581744882277425E-1
109 41 9.569235163552687E-1
109 48 4.6755936037185436E-1
109 49 9.82291644897406E-1
109 56 4.6757554710260846E-1
109 70 4.5815067301222606E-1
109 72 4.8064469195136256E-1
109 79 4.749571598620329E-1
109 82 9.714552931301653E-1
109 90 4.71999237018288E-1
109 91 4.2629602968779856E-1
109 102 9.423506325471641E-1
109 115 9.848245630393228E-1
109 116 9.778684816096636E-1
110 6 9.873154493468205E-1
110 11 4.712819261991578E-1
110 21 9.841491252539291E-1
110 25 9.874770356534011E-1
110 26 9.8640624256062E-1
110 32 4.6744838586882276E-1
110 37 9.956738305855133E-1
110 44 9.889242724032425E-1
110 64 9.926952328965352E-1
110 66 9.6317602221859E-1
110 67 9.894636586379684E-1
110 83 9.948734545441388E-1
110 96 4.1270900760208873E-1
110 105 9.623543856689702E-1
110 113 9.891152921037663E-1
110 119 9.967886912381566E-1
110 121 9.915492153900121E-1
111 1 9.994313962026423E-1
111 7 4.7864238400221426E-1
111 10 9.853441016431884E-1
111 17 9.856179475368626E-1
111 30 9.875287365414436E-1
111 31 9.967668702352475E-1
111 34 9.936294708554027E-1
111 39 9.876750061845798E-1
111 55 9.980634536501058E-1
111 57 9.906803102918055E-1
111 58 4.915489655774617E-1
111 60 9.978681672215339E-1
111 69 4.3135170260102007E-1
111 76 4.677800651976986E-1
111 78 4.541371041649991E-1
111 80 9.948626169937776E-1
111 81 4.782129472371893E-1
111 84 9.996715454404971E-1
111 85 4.9188248127523765E-1
111 93 4.9110660888983343E-1
111 98 4.814207773220421E-1
111 114 4.7971001358510573E-1
111 120 9.957802040141744E-1
111 126 4.9255540490014504E-1
111 127 4.6620212563604957E-1
112 2 9.859475530928066E-1
112 12 9.543963868286814E-1
112 17 4.56367313641049E-1
112 30 4.5699536903615984E-1
112 38 4.257204917096879E-1
112 69 9.995222015502407E-1
112 76 9.774835122843706E-1
112 78 9.90984478373289E-1
112 85 4.441750192183519E-1
112 93 4.6206424299570564E-1
112 101 4.3164881909566266E-1
112 107 9.979321274507736E-1
112 108 4.499553621140796E-1
112 127 9.789790224294287E-1
113 4 4.893890807783229E-1
113 6 4.8088170784571654E-1
113 11 4.510003073989939E-1
113 21 4.743291300323339E-1
113 23 9.844951510760203E-1
113 25 4.811838556567918E-1
113 26 9.962683883192331E-1
113 32 4.4661546073697855E-1
113 37 9.801549135669118E-1
113 42 9.890789215456539E-1
113 43 4.80990517139695E-1
113 44 4.8063690130734893E-1
113 46 3.61498446760819E-1
113 64 4.8743691649009113E-1
113 66 9.759605176940924E-1
113 67 9.980949736773511E-1
113 71 4.904018452491871E-1
113 83 9.948572028278366E-1
113 88 9.781626112824949E-1
113 92 4.878514137656904E-1
113 96 4.006600498055381E-1
113 97 4.6337723580125995E-1
113 105 4.805621632489973E-1
113 110 9.891152921037663E-1
113 119 9.832706349301923E-1
113 121 9.966246028032302E-1
114 1 4.8036023978706627E-1
114 5 9.681293522276643E-1
114 7 9.968748199803422E-1
114 10 9.901151563260937E-1
114 31 4.72606129691421E-1
114 34 4.824351018662992E-1
114 53 9.734881535506437E-1
114 58 9.944612542951822E-1
114 68 4.634563476382928E-1
114 81 9.968742245800776E-1
114 84 4.824286424319682E-1
114 85 9.833106186660958E-1
114 89 4.282681275904827E-1
114 94 4.607669998013575E-1
114 98 9.958065634112262E-1
114 108 9.654798946067241E-1
114 111 4.7971001358510573E-1
115 14 9.506299077709929E-1
115 20 4.686940217298912E-1
115 38 8.96991384648995E-1
115 40 9.691825033380796E-1
115 41 9.347051256161083E-1
115 49 9.583110139428697E-1
115 72 4.5086056769369537E-1
115 73 4.4681624894002886E-1
115 82 9.73076815387202E-1
115 91 9.258074617481798E-1
115 95 9.517268856227441E-1
115 101 9.005386742432057E-1
115 102 9.67085000457679E-1
115 109 9.848245630393228E-1
115 116 9.749973829064769E-1
116 14 9.956612826356593E-1
116 15 4.702567113103332E-1
116 18 4.729269473622834E-1
116 20 9.730642390712394E-1
116 24 4.697150134547697E-1
116 28 4.711892356526833E-1
116 36 9.648513785565929E-1
116 38 4.5770506795224597E-1
116 40 4.528433833354134E-1
116 49 9.921128693588707E-1
116 73 4.5089053017637576E-1
116 82 9.99435982971696E-1
116 91 4.2646376617457427E-1
116 95 9.586305709833001E-1
116 101 4.6660508996630434E-1
116 102 9.851489597320918E-1
116 109 9.778684816096636E-1
116 115 9.749973829064769E-1
116 124 4.7072252015849736E-1
117 9 4.3890910705718517E-1
117 19 9.365601986341455E-1
117 27 9.961935265161824E-1
117 35 8.530644656373859E-1
117 47 9.468839332265695E-1
117 50 9.321015993032501E-1
117 52 9.835903092337063E-1
117 54 9.751087434650535E-1
117 59 9.301732362941078E-1
117 65 4.2585335447952183E-1
117 99 4.5320286257951425E-1
117 100 8.654216565682079E-1
117 106 4.2763703173154166E-1
117 122 9.247926146751874E-1
118 8 4.8256130202405334E-1
118 12 4.5522596041582014E-1
118 14 4.74440919762769E-1
118 15 9.969290448507526E-1
118 18 4.6968477731929725E-1
118 24 9.978120339997403E-1
118 28 9.936460081658385E-1
118 36 9.889311860307849E-1
118 45 4.7950418942106665E-1
118 49 4.609308337692596E-1
118 62 4.769098815259889E-1
118 74 4.6933212975664274E-1
118 104 4.703409838639557E-1
118 124 4.849364374927426E-1
118 125 4.758803294637146E-1
119 6 9.954414632738844E-1
119 11 4.6215772770572233E-1
119 21 9.810733525404303E-1
119 25 9.956458106858526E-1
119 26 9.873225153929285E-1
119 32 4.577411570417531E-1
119 37 9.998604553941912E-1
119 42 4.732110107039544E-1
119 44 9.949802510402144E-1
119 64 9.990052830630535E-1
119 67 9.885000642609045E-1
119 71 4.740816933885493E-1
119 83 9.957232130949438E-1
119 96 3.932653117724022E-1
119 110 9.967886912381566E-1
119 113 9.832706349301923E-1
119 121 9.919754887606288E-1
120 1 9.964929238383615E-1
120 4 9.79538268755009E-1
120 17 4.8961544950074E-1
120 30 4.894978451149323E-1
120 31 9.993032076115741E-1
120 34 9.919532391686338E-1
120 39 9.971477127543202E-1
120 55 9.995192184248335E-1
120 57 9.989929296243024E-1
120 60 9.992942549692659E-1
120 71 9.870670222431441E-1
120 80 9.998866279699464E-1
120 84 9.947182904695385E-1
120 87 9.949048316120254E-1
120 93 4.865868634884233E-1
120 111 9.957802040141744E-1
120 126 9.940740311969265E-1
121 6 9.766207789538573E-1
121 21 4.774060474828908E-1
121 23 4.8631361558364167E-1
121 25 9.772028248127722E-1
121 26 9.993655673391448E-1
121 37 9.900373525922209E-1
121 42 9.76256995164496E-1
121 44 9.745564482242373E-1
121 64 9.870140258425321E-1
121 66 4.783861515293911E-1
121 67 9.996316172565363E-1
121 71 4.8987256930991724E-1
121 83 9.993972994383372E-1
121 105 4.7126181595894656E-1
121 110 9.915492153900121E-1
121 113 9.966246028032302E-1
121 119 9.919754887606288E-1
122 3 3.6112806968500316E-1
122 9 4.2167175557355674E-1
122 19 8.675044088916113E-1
122 27 8.926479177202883E-1
122 47 4.022026798216516E-1
122 50 9.974459377113378E-1
122 52 8.733594584040333E-1
122 54 8.849276699020523E-1
122 59 9.973170189888407E-1
122 61 4.15768681184908E-1
122 99 3.7489191775042063E-1
122 100 9.479455353503976E-1
122 106 3.498633016253219E-1
122 117 9.247926146751874E-1
123 3 4.842975137908172E-1
123 8 4.912500944308999E-1
123 16 9.989865086226862E-1
123 18 9.93607899690667E-1
123 20 4.888546288092261E-1
123 22 9.907971997576954E-1
123 29 4.8836704828800115E-1
123 45 9.857918764816654E-1
123 51 9.82753292283655E-1
123 61 4.386653447592612E-1
123 62 9.872938551363762E-1
123 63 9.959447459142772E-1
123 72 4.827573629786648E-1
123 74 9.89759214747403E-1
123 75 9.973573421072008E-1
123 77 9.956619140544922E-1
123 86 9.920882735296148E-1
123 103 9.866264630933559E-1
123 104 9.941681839332425E-1
123 124 4.8956330933876324E-1
123 125 9.872128937348702E-1
124 8 9.993886086782073E-1
124 14 4.8215173573089576E-1
124 15 9.837862541834674E-1
124 16 4.881395344015094E-1
124 18 9.939014168305975E-1
124 20 9.701444266351451E-1
124 24 9.722202360102424E-1
124 28 9.903813803319641E-1
124 36 9.808560679481079E-1
124 45 9.982004150241857E-1
124 49 4.831419147378533E-1
124 62 9.964020305754803E-1
124 74 9.902065870305129E-1
124 104 9.941413284334305E-1
124 116 4.7072252015849736E-1
124 118 4.849364374927426E-1
124 123 4.8956330933876324E-1
124 125 9.952722507020859E-1
125 8 9.980370586033438E-1
125 15 4.832904398870131E-1
125 16 9.817037421837377E-1
125 18 9.922660680091269E-1
125 22 9.767148593025882E-1
125 24 4.751528846668665E-1
125 28 9.761897396973189E-1
125 36 4.7925673966102855E-1
125 45 9.992909606960084E-1
125 62 9.999135688309289E-1
125 63 9.757108488862588E-1
125 74 9.990191852854932E-1
125 75 4.866957496038556E-1
125 77 4.8416791290823435E-1
125 103 4.8407669824583255E-1
125 104 9.984202271659709E-1
125 118 4.758803294637146E-1
125 123 9.872128937348702E-1
125 124 9.952722507020859E-1
126 1 9.894372554673987E-1
126 4 9.948355773459501E-1
126 5 4.810186853781261E-1
126 23 9.889579352910047E-1
126 26 4.8640171483814487E-1
126 31 9.955131766782505E-1
126 34 9.93097975912934E-1
126 39 9.988885329752495E-1
126 42 4.904502233035662E-1
126 43 4.7411250975184305E-1
126 55 9.913303875109553E-1
126 57 9.953111731965268E-1
126 60 9.897013607834605E-1
126 71 9.976244143985166E-1
126 80 9.955826100404611E-1
126 84 4.9296799931894164E-1
126 87 9.995034844998403E-1
126 88 4.888474570501615E-1
126 92 9.924125850217839E-1
126 111 4.9255540490014504E-1
126 120 9.940740311969265E-1
127 2 9.463278545897319E-1
127 17 9.757827600359348E-1
127 30 9.760789597577665E-1
127 60 4.63560690854644E-1
127 69 9.847564626323396E-1
127 76 9.99946440132979E-1
127 78 9.967524166797339E-1
127 84 4.6297102855026095E-1
127 85 4.7456044615574117E-1
127 93 9.817410456777519E-1
127 107 9.769960785194816E-1
127 108 4.6299629167732337E-1
127 111 4.6620212563604957E-1
127 112 9.789790224294287E-1
