%%MatrixMarket matrix coordinate real general
%
127 127 1128
1 10 4.939136118538345E-1
1 17 4.898197485568479E-1
1 30 4.908715812087198E-1
1 31 9.982207868240274E-1
1 34 9.967969133334571E-1
1 55 9.981328749454031E-1
1 60 9.97483456733135E-1
1 84 9.997379374728474E-1
1 111 9.994313962026423E-1
1 120 9.964929238383615E-1
2 12 9.905017829582222E-1
2 69 9.823196379280899E-1
2 76 4.7260513960819245E-1
2 78 9.688358225763141E-1
2 107 9.92678901859353E-1
2 112 9.859475530928066E-1
2 127 4.7316392729486595E-1
3 9 9.754487652280643E-1
3 22 9.914159910533061E-1
3 61 4.8330412460611527E-1
3 63 4.9329215526515885E-1
3 75 4.879577661295412E-1
3 77 4.8645770157231033E-1
3 86 4.881625201975449E-1
3 103 9.955487971339636E-1
4 23 9.986977290437963E-1
4 42 9.947304887770971E-1
4 71 9.934500536493891E-1
4 87 4.9589265579942793E-1
4 88 9.938963518199184E-1
4 92 9.996112970056185E-1
4 126 9.948355773459501E-1
5 10 4.914598136639388E-1
5 13 9.839944251506273E-1
5 43 9.850664593566408E-1
5 81 9.836798404920901E-1
5 88 9.871330975685091E-1
5 92 4.9221540387270757E-1
5 94 4.7820600542094804E-1
5 97 4.7186777662686585E-1
5 98 9.868186776912303E-1
6 21 9.845226239223346E-1
6 25 9.999942663618554E-1
6 37 9.968832267968919E-1
6 44 9.994405453289277E-1
6 64 9.984402789695525E-1
6 110 4.9365772467341024E-1
6 119 9.954414632738844E-1
7 10 4.913374217540687E-1
7 53 4.8292078304989E-1
7 58 9.903344386418623E-1
7 68 4.736118482162221E-1
7 81 9.875614843280051E-1
7 85 9.893854502616579E-1
7 98 9.859250054098173E-1
7 108 9.825154587385437E-1
7 114 9.968748199803422E-1
8 15 4.895545834881231E-1
8 18 9.940010816383549E-1
8 24 4.829539970753667E-1
8 28 4.933545600138886E-1
8 36 4.8703800382607804E-1
8 45 9.996556969770459E-1
8 62 9.987196777637259E-1
8 74 9.943721540412378E-1
8 104 9.965378076503615E-1
8 118 4.8256130202405334E-1
8 124 9.993886086782073E-1
8 125 9.980370586033438E-1
9 3 9.754487652280643E-1
9 22 4.6962671818913965E-1
9 47 4.617066117357113E-1
9 61 9.899769569896175E-1
9 63 4.660014571590411E-1
9 86 4.6263387437405545E-1
9 103 4.755210062571623E-1
10 1 4.939136118538345E-1
10 5 4.914598136639388E-1
10 7 4.913374217540687E-1
10 34 4.959991592446735E-1
10 58 9.987768507809976E-1
10 81 9.917869910916981E-1
10 84 4.946089629249557E-1
10 85 4.9252564542997557E-1
10 98 9.946390164894855E-1
10 114 9.901151563260937E-1
11 21 4.8726512453471965E-1
11 32 9.997226420340161E-1
11 44 4.6712875595606373E-1
11 66 4.636252101479769E-1
11 96 9.37835561076738E-1
11 105 9.591606426134016E-1
11 110 4.712819261991578E-1
12 2 9.905017829582222E-1
12 38 9.461176371833968E-1
12 69 9.488889522764153E-1
12 73 4.6498100179760005E-1
12 78 4.6691564176305794E-1
12 101 9.625047078810469E-1
12 107 9.685997794809266E-1
12 112 9.543963868286814E-1
13 5 9.839944251506273E-1
13 43 9.821964133721861E-1
13 46 4.243577693995559E-1
13 81 4.7980825557366874E-1
13 88 4.821084076043107E-1
13 94 9.897964828233292E-1
13 97 9.701148136336614E-1
13 98 4.801096185826066E-1
14 20 4.8733046590277307E-1
14 24 4.8307953241340584E-1
14 28 4.8438263507735924E-1
14 36 9.848270614342455E-1
14 49 9.921580790864263E-1
14 82 9.955341900392402E-1
14 102 9.7737471115435E-1
14 109 4.806556170607209E-1
14 116 9.956612826356593E-1
15 8 4.895545834881231E-1
15 24 9.982839384368083E-1
15 28 9.991200796407101E-1
15 36 9.963298549869698E-1
15 45 4.868915586546213E-1
15 118 9.969290448507526E-1
15 124 4.918931270917337E-1
16 18 9.935929777290646E-1
16 20 4.9243495996505365E-1
16 63 9.936427015599082E-1
16 75 9.978935800133087E-1
16 77 9.973388168185333E-1
16 86 9.940638553711605E-1
16 104 4.9535996109096E-1
16 123 9.989865086226862E-1
17 1 4.898197485568479E-1
17 30 9.995658587341856E-1
17 55 4.9171053896779826E-1
17 60 4.9283516182190545E-1
17 76 4.886891884292212E-1
17 84 4.907290179748185E-1
17 93 9.994700768802619E-1
17 111 4.928089737684313E-1
18 8 9.940010816383549E-1
18 16 9.935929777290646E-1
18 20 4.934428998212088E-1
18 45 9.944129217968618E-1
18 49 4.88021376017052E-1
18 62 9.934123011083793E-1
18 74 4.949561221436224E-1
18 104 9.96897224475911E-1
18 123 9.93607899690667E-1
18 124 9.939014168305975E-1
18 125 4.9613303400456343E-1
19 27 9.208031006061579E-1
19 35 8.961974590899873E-1
19 52 4.3606400804841644E-1
19 54 9.885576139560077E-1
19 59 8.94898086403133E-1
19 100 9.134114965417028E-1
19 117 9.365601986341455E-1
20 14 4.8733046590277307E-1
20 16 4.9243495996505365E-1
20 18 4.934428998212088E-1
20 29 4.891875874996806E-1
20 49 9.940394302721631E-1
20 77 4.8846352170915397E-1
20 109 9.781142476333522E-1
20 116 4.865321195356197E-1
20 123 4.888546288092261E-1
21 6 9.845226239223346E-1
21 11 4.8726512453471965E-1
21 25 9.840954509298361E-1
21 32 4.84617799381686E-1
21 37 4.9099402119594987E-1
21 44 9.89800192740558E-1
21 64 4.904543699822168E-1
21 96 4.25344131000442E-1
21 110 4.9207456262696453E-1
21 119 4.9053667627021513E-1
22 3 9.914159910533061E-1
22 9 4.6962671818913965E-1
22 61 4.6496880227227955E-1
22 63 9.975016881215644E-1
22 75 9.906945894144725E-1
22 77 4.9359921773453813E-1
22 86 4.931201053009441E-1
22 103 9.993025291932645E-1
22 123 4.953985998788477E-1
23 4 9.986977290437963E-1
23 42 9.98639420633402E-1
23 43 4.916362177453302E-1
23 66 4.8440563135767256E-1
23 71 9.895879668667555E-1
23 87 4.926124332194237E-1
23 88 9.975416020865181E-1
23 92 9.987745693211011E-1
23 113 4.9224757553801013E-1
23 126 4.9447896764550237E-1
24 8 4.829539970753667E-1
24 14 4.8307953241340584E-1
24 15 9.982839384368083E-1
24 28 9.950165408571222E-1
24 36 9.95906382716639E-1
24 118 9.978120339997403E-1
24 124 4.861101180051212E-1
25 6 9.999942663618554E-1
25 21 9.840954509298361E-1
25 37 9.970561511495016E-1
25 44 9.993512084921182E-1
25 64 9.98592386624532E-1
25 110 4.9373851782670053E-1
25 119 9.956458106858526E-1
26 67 9.996159325051951E-1
26 71 4.9304759859113895E-1
26 83 9.97594315700505E-1
26 110 4.9320312128031E-1
26 113 9.962683883192331E-1
26 119 4.9366125769646424E-1
26 121 9.993655673391448E-1
27 19 9.208031006061579E-1
27 35 4.358767640432668E-1
27 47 9.681619540622975E-1
27 50 9.037258285860974E-1
27 52 9.931923269143674E-1
27 54 9.675476641676235E-1
27 59 4.485747508370294E-1
27 99 4.6738826393663097E-1
27 100 4.118080885782387E-1
27 117 9.961935265161824E-1
27 122 4.4632395886014414E-1
28 8 4.933545600138886E-1
28 14 4.8438263507735924E-1
28 15 9.991200796407101E-1
28 24 9.950165408571222E-1
28 36 9.953221868476159E-1
28 45 4.9117439158922555E-1
28 118 9.936460081658385E-1
28 124 9.903813803319641E-1
29 20 4.891875874996806E-1
29 48 9.910546631685307E-1
29 51 9.973549382110153E-1
29 56 9.977574140115983E-1
29 72 9.985971922133076E-1
29 77 9.90991029116562E-1
29 79 9.983923514923242E-1
29 86 9.923702627551778E-1
30 1 4.908715812087198E-1
30 17 9.995658587341856E-1
30 55 4.918799088102296E-1
30 60 4.928816316659441E-1
30 76 4.889253702905121E-1
30 84 4.9198401348217197E-1
30 85 4.905407769746206E-1
30 93 9.995137193094781E-1
30 111 4.937643682707218E-1
30 127 4.8803947987888324E-1
31 1 9.982207868240274E-1
31 34 4.979886320389125E-1
31 39 9.96973754515963E-1
31 55 9.991368816721317E-1
31 57 9.974394985830342E-1
31 60 9.984411231472262E-1
31 80 9.994259857461415E-1
31 84 4.983195991175899E-1
31 87 4.975938763353389E-1
31 111 4.9838343511762373E-1
31 120 9.993032076115741E-1
31 126 4.977565883391252E-1
32 11 9.997226420340161E-1
32 21 4.84617799381686E-1
32 44 4.630305151741449E-1
32 66 4.611602202950024E-1
32 96 9.433707809787335E-1
32 105 9.560538679539001E-1
32 110 4.6744838586882276E-1
33 41 9.770931328276959E-1
33 47 4.7362533339164264E-1
33 48 4.9021211006964344E-1
33 65 4.913998549069655E-1
33 70 9.898919217085917E-1
33 90 9.904114822177763E-1
33 99 9.721607112694776E-1
33 106 4.8787696566599564E-1
34 1 9.967969133334571E-1
34 10 4.959991592446735E-1
34 31 4.979886320389125E-1
34 55 4.9630109632961955E-1
34 80 4.9630468641850095E-1
34 84 9.95736513393785E-1
34 92 4.949556764004161E-1
34 98 4.880794036449172E-1
34 111 4.968147354277013E-1
34 126 4.96548987956467E-1
35 19 8.961974590899873E-1
35 27 4.358767640432668E-1
35 47 4.1133520207052016E-1
35 52 4.191957614578992E-1
35 54 9.127165582221078E-1
35 99 3.944718038475384E-1
35 117 4.2653223281869296E-1
36 8 4.8703800382607804E-1
36 14 9.848270614342455E-1
36 15 9.963298549869698E-1
36 24 9.95906382716639E-1
36 28 9.953221868476159E-1
36 49 4.8327158748681015E-1
36 118 9.889311860307849E-1
36 124 4.9042803397405393E-1
37 6 9.968832267968919E-1
37 21 4.9099402119594987E-1
37 25 9.970561511495016E-1
37 44 9.963420550245569E-1
37 64 9.995894367786471E-1
37 67 4.930622767411461E-1
37 83 9.942308179152186E-1
37 110 9.956738305855133E-1
37 119 9.998604553941912E-1
37 121 4.9501867629611046E-1
38 12 9.461176371833968E-1
38 68 9.854502984157996E-1
38 73 9.983286139283178E-1
38 95 9.885022388029541E-1
38 101 9.963980497521577E-1
38 102 9.69314811185803E-1
38 108 9.50901836248099E-1
39 31 9.96973754515963E-1
39 57 9.986777527565471E-1
39 71 9.963237625546303E-1
39 80 9.981355065940419E-1
39 87 9.99652570929109E-1
39 120 9.971477127543202E-1
39 126 9.988885329752495E-1
40 73 4.529775534978415E-1
40 82 4.5387505009920004E-1
40 89 4.304071061123187E-1
40 91 9.887038111506097E-1
40 95 4.698845193884692E-1
40 102 4.6457114651657055E-1
40 109 4.581744882277425E-1
40 115 9.691825033380796E-1
41 33 9.770931328276959E-1
41 48 4.7204293050938917E-1
41 70 9.902891463680334E-1
41 72 4.712662554450645E-1
41 79 4.686565761038184E-1
41 90 4.8179821439556964E-1
41 109 4.7846175817763437E-1
42 4 9.947304887770971E-1
42 23 9.98639420633402E-1
42 43 9.877785028221081E-1
42 66 4.900540438001835E-1
42 71 4.9203022003929847E-1
42 88 9.980427900021942E-1
42 92 9.950217619475622E-1
42 97 4.7515496629860915E-1
42 113 9.890789215456539E-1
43 5 9.850664593566408E-1
43 13 9.821964133721861E-1
43 23 4.916362177453302E-1
43 42 9.877785028221081E-1
43 46 4.142118853622648E-1
43 66 9.857948288772758E-1
43 88 9.934638426437414E-1
43 94 4.733017443352462E-1
43 97 9.824841366611905E-1
43 105 4.8167398453051846E-1
44 6 9.994405453289277E-1
44 11 4.6712875595606373E-1
44 21 9.89800192740558E-1
44 25 9.993512084921182E-1
44 32 4.630305151741449E-1
44 37 9.963420550245569E-1
44 64 9.974224083306621E-1
44 110 4.9446213620162127E-1
44 119 9.949802510402144E-1
45 8 9.996556969770459E-1
45 15 4.868915586546213E-1
45 18 9.944129217968618E-1
45 28 4.9117439158922555E-1
45 62 9.996895361185559E-1
45 74 9.96779639967385E-1
45 104 9.98101035818972E-1
45 118 4.7950418942106665E-1
45 124 9.982004150241857E-1
45 125 9.992909606960084E-1
46 13 4.243577693995559E-1
46 43 4.142118853622648E-1
46 66 4.2138841031317176E-1
46 94 4.285742605068809E-1
46 96 9.343461879902326E-1
46 97 4.554227989903488E-1
46 105 4.3017853042662635E-1
47 9 4.617066117357113E-1
47 27 9.681619540622975E-1
47 33 4.7362533339164264E-1
47 35 4.1133520207052016E-1
47 48 4.7631350923397314E-1
47 52 9.887024381237939E-1
47 65 4.860892962866174E-1
47 99 9.936201887632629E-1
47 106 4.864404052469617E-1
47 117 4.7344196661328475E-1
48 29 9.910546631685307E-1
48 33 4.9021211006964344E-1
48 41 4.7204293050938917E-1
48 47 4.7631350923397314E-1
48 56 9.959079182677979E-1
48 65 9.972057024288306E-1
48 70 4.7352092196984974E-1
48 72 9.939150799045583E-1
48 79 9.969115318871091E-1
48 90 9.976264167377672E-1
48 99 4.9014897886167275E-1
48 106 9.966054471755158E-1
49 14 9.921580790864263E-1
49 18 4.88021376017052E-1
49 20 9.940394302721631E-1
49 36 4.8327158748681015E-1
49 82 9.879298751864567E-1
49 109 9.82291644897406E-1
49 115 4.7915550697143483E-1
49 116 9.921128693588707E-1
50 27 9.037258285860974E-1
50 52 4.457503714481189E-1
50 54 4.400567425834796E-1
50 59 9.907064560406754E-1
50 100 9.244987948008704E-1
50 117 9.321015993032501E-1
50 122 9.974459377113378E-1
51 29 9.973549382110153E-1
51 56 9.974365927931799E-1
51 72 9.925749563065553E-1
51 75 9.93137135499323E-1
51 77 9.95642113542961E-1
51 79 9.944535008814627E-1
51 86 9.977795751603201E-1
52 19 4.3606400804841644E-1
52 27 9.931923269143674E-1
52 35 4.191957614578992E-1
52 47 9.887024381237939E-1
52 50 4.457503714481189E-1
52 54 9.32612694483935E-1
52 65 4.6428613972714894E-1
52 99 4.830520001719234E-1
52 106 4.656517729054589E-1
52 117 9.835903092337063E-1
52 122 4.3667972920201664E-1
53 7 4.8292078304989E-1
53 58 4.732144662011796E-1
53 68 4.662781062606329E-1
53 81 9.743804756529933E-1
53 89 9.484400166231297E-1
53 94 9.544933797859086E-1
53 98 4.8392247235968777E-1
53 114 9.734881535506437E-1
54 19 9.885576139560077E-1
54 27 9.675476641676235E-1
54 35 9.127165582221078E-1
54 50 4.400567425834796E-1
54 52 9.32612694483935E-1
54 59 9.047952385626711E-1
54 100 8.880089695088712E-1
54 117 9.751087434650535E-1
54 122 4.4246383495102615E-1
55 1 9.981328749454031E-1
55 17 4.9171053896779826E-1
55 30 4.918799088102296E-1
55 31 9.991368816721317E-1
55 34 4.9630109632961955E-1
55 57 9.971713000677157E-1
55 60 9.998921982493774E-1
55 80 9.990516007188911E-1
55 84 4.9853119290977E-1
55 93 4.8915533533355543E-1
55 111 9.980634536501058E-1
55 120 9.995192184248335E-1
56 29 9.977574140115983E-1
56 48 9.959079182677979E-1
56 51 9.974365927931799E-1
56 65 4.948077053090878E-1
56 72 9.963360553523652E-1
56 79 9.987432053986908E-1
56 86 4.95239434983622E-1
56 90 4.9424075045468374E-1
56 99 4.840581012453352E-1
56 106 9.917321700928521E-1
57 31 9.974394985830342E-1
57 39 9.986777527565471E-1
57 55 9.971713000677157E-1
57 60 9.969486482137178E-1
57 71 4.9565051528274556E-1
57 80 9.992604196488989E-1
57 87 9.970456399462424E-1
57 120 9.989929296243024E-1
57 126 4.976555865982634E-1
58 7 9.903344386418623E-1
58 10 9.987768507809976E-1
58 53 4.732144662011796E-1
58 81 9.926992273158384E-1
58 84 4.933947493025385E-1
58 85 9.908775303249686E-1
58 98 9.945637360128502E-1
58 108 4.7603076316356063E-1
58 114 9.944612542951822E-1
59 19 8.94898086403133E-1
59 27 4.485747508370294E-1
59 50 9.907064560406754E-1
59 54 9.047952385626711E-1
59 100 9.665316160221333E-1
59 117 9.301732362941078E-1
59 122 9.973170189888407E-1
60 1 9.97483456733135E-1
60 17 4.9283516182190545E-1
60 30 4.928816316659441E-1
60 31 9.984411231472262E-1
60 55 9.998921982493774E-1
60 57 9.969486482137178E-1
60 80 9.986446862710916E-1
60 84 4.982568437279897E-1
60 93 4.9037251976121493E-1
60 111 9.978681672215339E-1
60 120 9.992942549692659E-1
61 3 4.8330412460611527E-1
61 9 9.899769569896175E-1
61 22 4.6496880227227955E-1
61 63 4.5687447734393855E-1
61 75 4.4546535409314636E-1
61 86 4.473518369193826E-1
61 103 4.705731151645987E-1
62 8 9.987196777637259E-1
62 18 9.934123011083793E-1
62 45 9.996895361185559E-1
62 74 9.984540889533832E-1
62 104 9.986120069711901E-1
62 124 9.964020305754803E-1
62 125 9.999135688309289E-1
63 3 4.9329215526515885E-1
63 9 4.660014571590411E-1
63 16 9.936427015599082E-1
63 22 9.975016881215644E-1
63 61 4.5687447734393855E-1
63 75 9.977701785800971E-1
63 77 9.959725578944346E-1
63 86 9.952133410206767E-1
63 103 9.964898150141059E-1
63 123 9.959447459142772E-1
64 6 9.984402789695525E-1
64 21 4.904543699822168E-1
64 25 9.98592386624532E-1
64 37 9.995894367786471E-1
64 44 9.974224083306621E-1
64 83 4.9584501430092803E-1
64 110 9.926952328965352E-1
64 119 9.990052830630535E-1
65 33 4.913998549069655E-1
65 47 4.860892962866174E-1
65 48 9.972057024288306E-1
65 52 4.6428613972714894E-1
65 56 4.948077053090878E-1
65 70 4.7381405773230584E-1
65 72 4.9154269888721414E-1
65 79 4.9441807075823146E-1
65 90 9.945178880511699E-1
65 99 9.922248615571175E-1
65 106 9.99377107145294E-1
66 11 4.636252101479769E-1
66 23 4.8440563135767256E-1
66 32 4.611602202950024E-1
66 42 4.900540438001835E-1
66 43 9.857948288772758E-1
66 46 4.2138841031317176E-1
66 88 4.887483040154053E-1
66 96 4.450090015518088E-1
66 97 9.842260176937938E-1
66 105 9.940313951793012E-1
66 113 4.879802588470462E-1
67 26 9.996159325051951E-1
67 37 4.930622767411461E-1
67 83 9.982256988005612E-1
67 110 9.894636586379684E-1
67 113 9.980949736773511E-1
67 119 4.9425003213045227E-1
67 121 9.996316172565363E-1
68 7 4.736118482162221E-1
68 38 9.854502984157996E-1
68 53 4.662781062606329E-1
68 73 9.919729339586403E-1
68 89 4.346677720706773E-1
68 91 4.485443802006783E-1
68 95 9.575948020263723E-1
68 101 9.692356192236231E-1
68 108 9.820249418674337E-1
69 2 9.823196379280899E-1
69 12 9.488889522764153E-1
69 76 9.834561198169839E-1
69 78 9.944772344888735E-1
69 107 9.973462932909681E-1
69 112 9.995222015502407E-1
69 127 9.847564626323396E-1
70 33 9.898919217085917E-1
70 41 9.902891463680334E-1
70 48 4.7352092196984974E-1
70 65 4.7381405773230584E-1
70 90 4.830412377340038E-1
70 99 4.66421795385771E-1
70 106 4.680931203022478E-1
71 4 9.934500536493891E-1
71 23 9.895879668667555E-1
71 26 4.9304759859113895E-1
71 39 9.963237625546303E-1
71 42 4.9203022003929847E-1
71 57 4.9565051528274556E-1
71 87 9.981655796376424E-1
71 92 9.899192509436983E-1
71 126 9.976244143985166E-1
72 29 9.985971922133076E-1
72 41 4.712662554450645E-1
72 48 9.939150799045583E-1
72 51 9.925749563065553E-1
72 56 9.963360553523652E-1
72 65 4.9154269888721414E-1
72 79 9.991702365563021E-1
72 86 4.9225225086201174E-1
72 90 9.908092761164695E-1
72 106 4.915703033508876E-1
72 109 4.8064469195136256E-1
73 12 4.6498100179760005E-1
73 38 9.983286139283178E-1
73 40 4.529775534978415E-1
73 68 9.919729339586403E-1
73 91 4.5569166710755715E-1
73 95 9.856869440207082E-1
73 101 9.898888241483519E-1
73 102 4.8054068146757734E-1
73 108 9.570456232007511E-1
74 8 9.943721540412378E-1
74 18 4.949561221436224E-1
74 45 9.96779639967385E-1
74 62 9.984540889533832E-1
74 104 9.979782616543753E-1
74 124 4.9510329351525645E-1
74 125 9.990191852854932E-1
75 3 4.879577661295412E-1
75 16 9.978935800133087E-1
75 22 9.906945894144725E-1
75 51 9.93137135499323E-1
75 61 4.4546535409314636E-1
75 63 9.977701785800971E-1
75 77 9.996492670104725E-1
75 86 9.985620703187126E-1
75 103 4.9443613817325127E-1
75 123 9.973573421072008E-1
76 2 4.7260513960819245E-1
76 17 4.886891884292212E-1
76 30 4.889253702905121E-1
76 69 9.834561198169839E-1
76 78 9.963875569144135E-1
76 93 9.832114348141615E-1
76 107 4.879872229928379E-1
76 112 9.774835122843706E-1
76 127 9.99946440132979E-1
77 3 4.8645770157231033E-1
77 16 9.973388168185333E-1
77 20 4.8846352170915397E-1
77 22 4.9359921773453813E-1
77 29 9.90991029116562E-1
77 51 9.95642113542961E-1
77 63 9.959725578944346E-1
77 75 9.996492670104725E-1
77 86 9.993478163169615E-1
77 103 4.9282171247610357E-1
77 123 9.956619140544922E-1
78 2 9.688358225763141E-1
78 12 4.6691564176305794E-1
78 69 9.944772344888735E-1
78 76 9.963875569144135E-1
78 93 4.8271309045307315E-1
78 107 9.908664651357564E-1
78 112 9.90984478373289E-1
78 127 9.967524166797339E-1
79 29 9.983923514923242E-1
79 41 4.686565761038184E-1
79 48 9.969115318871091E-1
79 51 9.944535008814627E-1
79 56 9.987432053986908E-1
79 65 4.9441807075823146E-1
79 72 9.991702365563021E-1
79 90 9.925831281322947E-1
79 106 9.894185661268117E-1
80 31 9.994259857461415E-1
80 34 4.9630468641850095E-1
80 39 9.981355065940419E-1
80 55 9.990516007188911E-1
80 57 9.992604196488989E-1
80 60 9.986446862710916E-1
80 87 9.962853086505635E-1
80 111 4.974313084968888E-1
80 120 9.998866279699464E-1
80 126 4.9779130502023056E-1
81 5 9.836798404920901E-1
81 7 9.875614843280051E-1
81 10 9.917869910916981E-1
81 13 4.7980825557366874E-1
81 53 9.743804756529933E-1
81 58 9.926992273158384E-1
81 89 4.3001076603634913E-1
81 94 4.723996456294167E-1
81 98 9.996008924951393E-1
81 114 9.968742245800776E-1
82 14 9.955341900392402E-1
82 40 4.5387505009920004E-1
82 49 9.879298751864567E-1
82 95 9.664776054440112E-1
82 101 4.721909879665802E-1
82 102 9.899558458224837E-1
82 109 9.714552931301653E-1
82 115 9.73076815387202E-1
82 116 9.99435982971696E-1
83 26 9.97594315700505E-1
83 37 9.942308179152186E-1
83 64 4.9584501430092803E-1
83 67 9.982256988005612E-1
83 110 9.948734545441388E-1
83 113 9.948572028278366E-1
83 119 9.957232130949438E-1
83 121 9.993972994383372E-1
84 1 9.997379374728474E-1
84 10 4.946089629249557E-1
84 17 4.907290179748185E-1
84 30 4.9198401348217197E-1
84 31 4.983195991175899E-1
84 34 9.95736513393785E-1
84 55 4.9853119290977E-1
84 58 4.933947493025385E-1
84 60 4.982568437279897E-1
84 85 4.9235023474327105E-1
84 111 9.996715454404971E-1
84 120 4.9735914523476926E-1
85 7 9.893854502616579E-1
85 10 4.9252564542997557E-1
85 30 4.905407769746206E-1
85 58 9.908775303249686E-1
85 84 4.9235023474327105E-1
85 108 4.861090854247746E-1
85 111 4.9188248127523765E-1
85 114 9.833106186660958E-1
86 3 4.881625201975449E-1
86 9 4.6263387437405545E-1
86 16 9.940638553711605E-1
86 22 4.931201053009441E-1
86 29 9.923702627551778E-1
86 51 9.977795751603201E-1
86 56 4.95239434983622E-1
86 61 4.473518369193826E-1
86 63 9.952133410206767E-1
86 72 4.9225225086201174E-1
86 75 9.985620703187126E-1
86 77 9.993478163169615E-1
86 103 4.929946125461857E-1
86 123 9.920882735296148E-1
87 4 4.9589265579942793E-1
87 23 4.926124332194237E-1
87 31 4.975938763353389E-1
87 39 9.99652570929109E-1
87 57 9.970456399462424E-1
87 71 9.981655796376424E-1
87 80 9.962853086505635E-1
87 120 4.974524158060127E-1
87 126 9.995034844998403E-1
88 4 9.938963518199184E-1
88 5 9.871330975685091E-1
88 13 4.821084076043107E-1
88 23 9.975416020865181E-1
88 42 9.980427900021942E-1
88 43 9.934638426437414E-1
88 66 4.887483040154053E-1
88 92 9.957766344661948E-1
88 97 4.785823543796762E-1
88 113 4.8908130564124747E-1
89 40 4.304071061123187E-1
89 53 9.484400166231297E-1
89 68 4.346677720706773E-1
89 81 4.3001076603634913E-1
89 91 9.24212358441015E-1
89 94 4.534121707459354E-1
89 114 4.282681275904827E-1
90 33 9.904114822177763E-1
90 41 4.8179821439556964E-1
90 48 9.976264167377672E-1
90 56 4.9424075045468374E-1
90 65 9.945178880511699E-1
90 70 4.830412377340038E-1
90 72 9.908092761164695E-1
90 79 9.925831281322947E-1
90 99 4.881238448589777E-1
90 106 9.915093034393507E-1
91 40 9.887038111506097E-1
91 68 4.485443802006783E-1
91 73 4.5569166710755715E-1
91 89 9.24212358441015E-1
91 95 4.6209687953706613E-1
91 102 4.486820366245163E-1
91 115 4.629037308740899E-1
92 4 9.996112970056185E-1
92 5 4.9221540387270757E-1
92 23 9.987745693211011E-1
92 34 4.949556764004161E-1
92 42 9.950217619475622E-1
92 71 9.899192509436983E-1
92 88 9.957766344661948E-1
92 126 4.9620629251089193E-1
93 17 9.994700768802619E-1
93 30 9.995137193094781E-1
93 55 4.8915533533355543E-1
93 60 4.9037251976121493E-1
93 76 9.832114348141615E-1
93 78 4.8271309045307315E-1
93 111 4.9110660888983343E-1
93 127 9.817410456777519E-1
94 5 4.7820600542094804E-1
94 13 9.897964828233292E-1
94 43 4.733017443352462E-1
94 46 4.285742605068809E-1
94 53 9.544933797859086E-1
94 81 4.723996456294167E-1
94 89 4.534121707459354E-1
94 97 4.716932593948352E-1
94 98 4.708495810025333E-1
95 38 9.885022388029541E-1
95 40 4.698845193884692E-1
95 68 9.575948020263723E-1
95 73 9.856869440207082E-1
95 82 9.664776054440112E-1
95 91 4.6209687953706613E-1
95 101 9.88085399398709E-1
95 102 9.928260825155655E-1
95 115 4.7586344281137205E-1
95 116 4.7931528549165003E-1
96 11 9.37835561076738E-1
96 21 4.25344131000442E-1
96 32 9.433707809787335E-1
96 46 9.343461879902326E-1
96 66 4.450090015518088E-1
96 97 4.541285947059568E-1
96 105 4.637683152645975E-1
97 5 4.7186777662686585E-1
97 13 9.701148136336614E-1
97 42 4.7515496629860915E-1
97 43 9.824841366611905E-1
97 46 4.554227989903488E-1
97 66 9.842260176937938E-1
97 88 4.785823543796762E-1
97 94 4.716932593948352E-1
97 96 4.541285947059568E-1
97 105 9.778093673822764E-1
98 5 9.868186776912303E-1
98 7 9.859250054098173E-1
98 10 9.946390164894855E-1
98 13 4.801096185826066E-1
98 34 4.880794036449172E-1
98 53 4.8392247235968777E-1
98 58 9.945637360128502E-1
98 81 9.996008924951393E-1
98 94 4.708495810025333E-1
98 114 9.958065634112262E-1
99 27 4.6738826393663097E-1
99 33 9.721607112694776E-1
99 35 3.944718038475384E-1
99 47 9.936201887632629E-1
99 48 4.9014897886167275E-1
99 52 4.830520001719234E-1
99 56 4.840581012453352E-1
99 65 9.922248615571175E-1
99 70 4.66421795385771E-1
99 90 4.881238448589777E-1
99 106 9.92033016790374E-1
100 19 9.134114965417028E-1
100 27 4.118080885782387E-1
100 50 9.244987948008704E-1
100 54 8.880089695088712E-1
100 59 9.665316160221333E-1
100 117 4.3271082828410395E-1
100 122 9.479455353503976E-1
101 12 9.625047078810469E-1
101 38 9.963980497521577E-1
101 68 9.692356192236231E-1
101 73 9.898888241483519E-1
101 82 4.721909879665802E-1
101 95 9.88085399398709E-1
101 102 9.776227731181765E-1
102 14 9.7737471115435E-1
102 38 9.69314811185803E-1
102 40 4.6457114651657055E-1
102 73 4.8054068146757734E-1
102 82 9.899558458224837E-1
102 91 4.486820366245163E-1
102 95 9.928260825155655E-1
102 101 9.776227731181765E-1
102 115 9.67085000457679E-1
102 116 9.851489597320918E-1
103 3 9.955487971339636E-1
103 9 4.755210062571623E-1
103 22 9.993025291932645E-1
103 61 4.705731151645987E-1
103 63 9.964898150141059E-1
103 75 4.9443613817325127E-1
103 77 4.9282171247610357E-1
103 86 4.929946125461857E-1
103 123 4.9331323154667794E-1
104 8 9.965378076503615E-1
104 16 4.9535996109096E-1
104 18 9.96897224475911E-1
104 45 9.98101035818972E-1
104 62 9.986120069711901E-1
104 74 9.979782616543753E-1
104 123 9.941681839332425E-1
104 124 4.9707066421671525E-1
104 125 9.984202271659709E-1
105 11 9.591606426134016E-1
105 32 9.560538679539001E-1
105 43 4.8167398453051846E-1
105 46 4.3017853042662635E-1
105 66 9.940313951793012E-1
105 96 4.637683152645975E-1
105 97 9.778093673822764E-1
105 110 4.811771928344851E-1
105 113 4.805621632489973E-1
106 33 4.8787696566599564E-1
106 47 4.864404052469617E-1
106 48 9.966054471755158E-1
106 52 4.656517729054589E-1
106 56 9.917321700928521E-1
106 65 9.99377107145294E-1
106 70 4.680931203022478E-1
106 72 4.915703033508876E-1
106 79 9.894185661268117E-1
106 90 9.915093034393507E-1
106 99 9.92033016790374E-1
107 2 9.92678901859353E-1
107 12 9.685997794809266E-1
107 69 9.973462932909681E-1
107 76 4.879872229928379E-1
107 78 9.908664651357564E-1
107 112 9.979321274507736E-1
107 127 9.769960785194816E-1
108 7 9.825154587385437E-1
108 38 9.50901836248099E-1
108 58 4.7603076316356063E-1
108 68 9.820249418674337E-1
108 73 9.570456232007511E-1
108 85 4.861090854247746E-1
108 114 4.8273994730336206E-1
109 14 4.806556170607209E-1
109 20 9.781142476333522E-1
109 40 4.581744882277425E-1
109 41 4.7846175817763437E-1
109 49 9.82291644897406E-1
109 72 4.8064469195136256E-1
109 82 9.714552931301653E-1
109 115 9.848245630393228E-1
109 116 9.778684816096636E-1
110 6 4.9365772467341024E-1
110 11 4.712819261991578E-1
110 21 4.9207456262696453E-1
110 25 4.9373851782670053E-1
110 26 4.9320312128031E-1
110 32 4.6744838586882276E-1
110 37 9.956738305855133E-1
110 44 4.9446213620162127E-1
110 64 9.926952328965352E-1
110 67 9.894636586379684E-1
110 83 9.948734545441388E-1
110 105 4.811771928344851E-1
110 113 9.891152921037663E-1
110 119 9.967886912381566E-1
110 121 9.915492153900121E-1
111 1 9.994313962026423E-1
111 17 4.928089737684313E-1
111 30 4.937643682707218E-1
111 31 4.9838343511762373E-1
111 34 4.968147354277013E-1
111 55 9.980634536501058E-1
111 60 9.978681672215339E-1
111 80 4.974313084968888E-1
111 84 9.996715454404971E-1
111 85 4.9188248127523765E-1
111 93 4.9110660888983343E-1
111 120 4.978901020070872E-1
112 2 9.859475530928066E-1
112 12 9.543963868286814E-1
112 69 9.995222015502407E-1
112 76 9.774835122843706E-1
112 78 9.90984478373289E-1
112 107 9.979321274507736E-1
112 127 9.789790224294287E-1
113 23 4.9224757553801013E-1
113 26 9.962683883192331E-1
113 42 9.890789215456539E-1
113 66 4.879802588470462E-1
113 67 9.980949736773511E-1
113 83 9.948572028278366E-1
113 88 4.8908130564124747E-1
113 105 4.805621632489973E-1
113 110 9.891152921037663E-1
113 121 9.966246028032302E-1
114 7 9.968748199803422E-1
114 10 9.901151563260937E-1
114 53 9.734881535506437E-1
114 58 9.944612542951822E-1
114 81 9.968742245800776E-1
114 85 9.833106186660958E-1
114 89 4.282681275904827E-1
114 98 9.958065634112262E-1
114 108 4.8273994730336206E-1
115 40 9.691825033380796E-1
115 49 4.7915550697143483E-1
115 82 9.73076815387202E-1
115 91 4.629037308740899E-1
115 95 4.7586344281137205E-1
115 102 9.67085000457679E-1
115 109 9.848245630393228E-1
115 116 9.749973829064769E-1
116 14 9.956612826356593E-1
116 20 4.865321195356197E-1
116 49 9.921128693588707E-1
116 82 9.99435982971696E-1
116 95 4.7931528549165003E-1
116 102 9.851489597320918E-1
116 109 9.778684816096636E-1
116 115 9.749973829064769E-1
117 19 9.365601986341455E-1
117 27 9.961935265161824E-1
117 35 4.2653223281869296E-1
117 47 4.7344196661328475E-1
117 50 9.321015993032501E-1
117 52 9.835903092337063E-1
117 54 9.751087434650535E-1
117 59 9.301732362941078E-1
117 100 4.3271082828410395E-1
117 122 4.623963073375937E-1
118 8 4.8256130202405334E-1
118 15 9.969290448507526E-1
118 24 9.978120339997403E-1
118 28 9.936460081658385E-1
118 36 9.889311860307849E-1
118 45 4.7950418942106665E-1
118 124 4.849364374927426E-1
119 6 9.954414632738844E-1
119 21 4.9053667627021513E-1
119 25 9.956458106858526E-1
119 26 4.9366125769646424E-1
119 37 9.998604553941912E-1
119 44 9.949802510402144E-1
119 64 9.990052830630535E-1
119 67 4.9425003213045227E-1
119 83 9.957232130949438E-1
119 110 9.967886912381566E-1
119 121 4.959877443803144E-1
120 1 9.964929238383615E-1
120 31 9.993032076115741E-1
120 39 9.971477127543202E-1
120 55 9.995192184248335E-1
120 57 9.989929296243024E-1
120 60 9.992942549692659E-1
120 80 9.998866279699464E-1
120 84 4.9735914523476926E-1
120 87 4.974524158060127E-1
120 111 4.978901020070872E-1
121 26 9.993655673391448E-1
121 37 4.9501867629611046E-1
121 67 9.996316172565363E-1
121 83 9.993972994383372E-1
121 110 9.915492153900121E-1
121 113 9.966246028032302E-1
121 119 4.959877443803144E-1
122 27 4.4632395886014414E-1
122 50 9.974459377113378E-1
122 52 4.3667972920201664E-1
122 54 4.4246383495102615E-1
122 59 9.973170189888407E-1
122 100 9.479455353503976E-1
122 117 4.623963073375937E-1
123 16 9.989865086226862E-1
123 18 9.93607899690667E-1
123 20 4.888546288092261E-1
123 22 4.953985998788477E-1
123 63 9.959447459142772E-1
123 75 9.973573421072008E-1
123 77 9.956619140544922E-1
123 86 9.920882735296148E-1
123 103 4.9331323154667794E-1
123 104 9.941681839332425E-1
124 8 9.993886086782073E-1
124 15 4.918931270917337E-1
124 18 9.939014168305975E-1
124 24 4.861101180051212E-1
124 28 9.903813803319641E-1
124 36 4.9042803397405393E-1
124 45 9.982004150241857E-1
124 62 9.964020305754803E-1
124 74 4.9510329351525645E-1
124 104 4.9707066421671525E-1
124 118 4.849364374927426E-1
124 125 9.952722507020859E-1
125 8 9.980370586033438E-1
125 18 4.9613303400456343E-1
125 45 9.992909606960084E-1
125 62 9.999135688309289E-1
125 74 9.990191852854932E-1
125 104 9.984202271659709E-1
125 124 9.952722507020859E-1
126 4 9.948355773459501E-1
126 23 4.9447896764550237E-1
126 31 4.977565883391252E-1
126 34 4.96548987956467E-1
126 39 9.988885329752495E-1
126 57 4.976555865982634E-1
126 71 9.976244143985166E-1
126 80 4.9779130502023056E-1
126 87 9.995034844998403E-1
126 92 4.9620629251089193E-1
127 2 4.7316392729486595E-1
127 30 4.8803947987888324E-1
127 69 9.847564626323396E-1
127 76 9.99946440132979E-1
127 78 9.967524166797339E-1
127 93 9.817410456777519E-1
127 107 9.769960785194816E-1
127 112 9.789790224294287E-1
