%%MatrixMarket matrix coordinate real general
%
127 127 500
1 31 4.991103934120137E-1
1 34 4.9839845666672855E-1
1 84 9.997379374728474E-1
1 111 9.994313962026423E-1
2 12 9.905017829582222E-1
2 107 9.92678901859353E-1
2 112 4.929737765464033E-1
3 9 4.8772438261403217E-1
3 22 9.914159910533061E-1
3 61 4.8330412460611527E-1
3 63 4.9329215526515885E-1
3 103 9.955487971339636E-1
4 23 9.986977290437963E-1
4 92 9.996112970056185E-1
4 126 4.9741778867297504E-1
5 13 4.9199721257531365E-1
5 43 4.925332296783204E-1
5 88 4.9356654878425454E-1
5 94 4.7820600542094804E-1
5 98 4.9340933884561516E-1
6 21 4.922613119611673E-1
6 25 9.999942663618554E-1
6 44 9.994405453289277E-1
6 64 4.992201394847762E-1
7 58 4.9516721932093116E-1
7 85 9.893854502616579E-1
7 108 4.9125772936927187E-1
7 114 9.968748199803422E-1
8 18 4.9700054081917744E-1
8 45 9.996556969770459E-1
8 62 9.987196777637259E-1
8 124 9.993886086782073E-1
9 3 4.8772438261403217E-1
9 61 9.899769569896175E-1
9 103 4.755210062571623E-1
10 34 4.959991592446735E-1
10 58 9.987768507809976E-1
10 85 4.9252564542997557E-1
10 98 9.946390164894855E-1
11 21 4.8726512453471965E-1
11 32 9.997226420340161E-1
11 96 4.68917780538369E-1
11 105 4.795803213067008E-1
12 2 9.905017829582222E-1
12 101 4.8125235394052346E-1
12 107 4.842998897404633E-1
13 5 4.9199721257531365E-1
13 43 4.9109820668609305E-1
13 94 9.897964828233292E-1
14 49 9.921580790864263E-1
14 82 9.955341900392402E-1
14 116 9.956612826356593E-1
15 24 9.982839384368083E-1
15 28 9.991200796407101E-1
15 36 4.981649274934849E-1
15 118 9.969290448507526E-1
16 20 4.9243495996505365E-1
16 75 9.978935800133087E-1
16 77 9.973388168185333E-1
16 123 9.989865086226862E-1
17 30 9.995658587341856E-1
17 60 4.9283516182190545E-1
17 93 9.994700768802619E-1
18 8 4.9700054081917744E-1
18 20 4.934428998212088E-1
18 45 4.972064608984309E-1
18 104 4.984486122379555E-1
19 27 4.6040155030307894E-1
19 35 4.4809872954499363E-1
19 54 9.885576139560077E-1
19 117 4.6828009931707276E-1
20 16 4.9243495996505365E-1
20 18 4.934428998212088E-1
20 49 9.940394302721631E-1
20 109 4.890571238166761E-1
21 6 4.922613119611673E-1
21 11 4.8726512453471965E-1
21 32 4.84617799381686E-1
21 44 4.94900096370279E-1
21 110 4.9207456262696453E-1
22 3 9.914159910533061E-1
22 63 9.975016881215644E-1
22 103 9.993025291932645E-1
23 4 9.986977290437963E-1
23 42 9.98639420633402E-1
23 88 4.9877080104325905E-1
23 92 9.987745693211011E-1
24 15 9.982839384368083E-1
24 28 4.975082704285611E-1
24 36 9.95906382716639E-1
24 118 9.978120339997403E-1
25 6 9.999942663618554E-1
25 37 4.985280755747508E-1
25 44 9.993512084921182E-1
25 64 9.98592386624532E-1
26 67 9.996159325051951E-1
26 83 9.97594315700505E-1
26 113 4.981341941596166E-1
26 121 9.993655673391448E-1
27 19 4.6040155030307894E-1
27 35 4.358767640432668E-1
27 47 4.840809770311488E-1
27 52 9.931923269143674E-1
27 54 4.8377383208381175E-1
27 117 9.961935265161824E-1
28 15 9.991200796407101E-1
28 24 4.975082704285611E-1
28 36 9.953221868476159E-1
28 118 4.9682300408291924E-1
29 51 4.9867746910550764E-1
29 56 9.977574140115983E-1
29 72 9.985971922133076E-1
29 79 9.983923514923242E-1
30 17 9.995658587341856E-1
30 93 9.995137193094781E-1
30 111 4.937643682707218E-1
31 1 4.991103934120137E-1
31 34 4.979886320389125E-1
31 55 9.991368816721317E-1
31 80 9.994259857461415E-1
31 120 9.993032076115741E-1
32 11 9.997226420340161E-1
32 21 4.84617799381686E-1
32 96 4.7168539048936675E-1
32 105 4.7802693397695006E-1
33 41 4.8854656641384797E-1
33 65 4.913998549069655E-1
33 70 9.898919217085917E-1
33 90 4.9520574110888815E-1
34 1 4.9839845666672855E-1
34 10 4.959991592446735E-1
34 31 4.979886320389125E-1
34 84 4.978682566968925E-1
35 19 4.4809872954499363E-1
35 27 4.358767640432668E-1
35 54 4.563582791110539E-1
36 15 4.981649274934849E-1
36 24 9.95906382716639E-1
36 28 9.953221868476159E-1
37 25 4.985280755747508E-1
37 64 9.995894367786471E-1
37 110 4.9783691529275664E-1
37 119 9.998604553941912E-1
38 68 4.927251492078998E-1
38 73 9.983286139283178E-1
38 95 9.885022388029541E-1
38 101 9.963980497521577E-1
39 57 9.986777527565471E-1
39 71 4.9816188127731514E-1
39 87 9.99652570929109E-1
39 126 9.988885329752495E-1
40 91 9.887038111506097E-1
40 95 4.698845193884692E-1
40 115 4.845912516690398E-1
41 33 4.8854656641384797E-1
41 70 9.902891463680334E-1
41 90 4.8179821439556964E-1
42 23 9.98639420633402E-1
42 43 4.9388925141105405E-1
42 88 9.980427900021942E-1
42 92 4.975108809737811E-1
43 5 4.925332296783204E-1
43 13 4.9109820668609305E-1
43 42 4.9388925141105405E-1
43 66 9.857948288772758E-1
43 88 4.967319213218707E-1
43 97 4.9124206833059525E-1
43 105 4.8167398453051846E-1
44 6 9.994405453289277E-1
44 21 4.94900096370279E-1
44 25 9.993512084921182E-1
44 64 4.9871120416533105E-1
45 8 9.996556969770459E-1
45 18 4.972064608984309E-1
45 62 9.996895361185559E-1
45 104 4.99050517909486E-1
45 124 4.9910020751209283E-1
45 125 9.992909606960084E-1
46 96 9.343461879902326E-1
46 97 4.554227989903488E-1
46 105 4.3017853042662635E-1
47 27 4.840809770311488E-1
47 52 9.887024381237939E-1
47 99 9.936201887632629E-1
47 106 4.864404052469617E-1
48 65 9.972057024288306E-1
48 79 4.9845576594355456E-1
48 90 9.976264167377672E-1
48 106 4.983027235877579E-1
49 14 9.921580790864263E-1
49 20 9.940394302721631E-1
49 109 4.91145822448703E-1
49 116 9.921128693588707E-1
50 59 9.907064560406754E-1
50 100 4.622493974004352E-1
50 117 4.6605079965162505E-1
50 122 9.974459377113378E-1
51 29 4.9867746910550764E-1
51 56 9.974365927931799E-1
51 86 9.977795751603201E-1
52 27 9.931923269143674E-1
52 47 9.887024381237939E-1
52 117 9.835903092337063E-1
53 81 4.871902378264967E-1
53 89 4.7422000831156486E-1
53 94 4.772466898929543E-1
53 98 4.8392247235968777E-1
53 114 4.8674407677532183E-1
54 19 9.885576139560077E-1
54 27 4.8377383208381175E-1
54 35 4.563582791110539E-1
54 117 9.751087434650535E-1
55 31 9.991368816721317E-1
55 60 9.998921982493774E-1
55 84 4.9853119290977E-1
55 111 4.990317268250529E-1
55 120 9.995192184248335E-1
56 29 9.977574140115983E-1
56 51 9.974365927931799E-1
56 72 4.981680276761826E-1
56 79 9.987432053986908E-1
57 39 9.986777527565471E-1
57 80 9.992604196488989E-1
57 120 4.994964648121512E-1
58 7 4.9516721932093116E-1
58 10 9.987768507809976E-1
58 81 4.963496136579192E-1
58 85 4.954387651624843E-1
58 98 4.972818680064251E-1
58 114 4.972306271475911E-1
59 50 9.907064560406754E-1
59 100 9.665316160221333E-1
59 122 9.973170189888407E-1
60 17 4.9283516182190545E-1
60 55 9.998921982493774E-1
60 80 4.993223431355458E-1
60 120 4.9964712748463297E-1
61 3 4.8330412460611527E-1
61 9 9.899769569896175E-1
61 103 4.705731151645987E-1
62 8 9.987196777637259E-1
62 45 9.996895361185559E-1
62 74 4.992270444766916E-1
62 104 4.9930600348559506E-1
62 124 4.9820101528774013E-1
62 125 9.999135688309289E-1
63 3 4.9329215526515885E-1
63 22 9.975016881215644E-1
63 75 4.9888508929004854E-1
63 103 9.964898150141059E-1
63 123 4.979723729571386E-1
64 6 4.992201394847762E-1
64 25 9.98592386624532E-1
64 37 9.995894367786471E-1
64 44 4.9871120416533105E-1
64 119 9.990052830630535E-1
65 33 4.913998549069655E-1
65 48 9.972057024288306E-1
65 90 9.945178880511699E-1
65 99 4.9611243077855877E-1
65 106 9.99377107145294E-1
66 43 9.857948288772758E-1
66 97 9.842260176937938E-1
66 105 9.940313951793012E-1
67 26 9.996159325051951E-1
67 83 9.982256988005612E-1
67 113 4.9904748683867556E-1
67 121 9.996316172565363E-1
68 38 4.927251492078998E-1
68 73 9.919729339586403E-1
68 108 9.820249418674337E-1
69 76 4.9172805990849194E-1
69 78 9.944772344888735E-1
69 107 9.973462932909681E-1
69 112 9.995222015502407E-1
69 127 4.923782313161698E-1
70 33 9.898919217085917E-1
70 41 9.902891463680334E-1
70 90 4.830412377340038E-1
71 39 4.9816188127731514E-1
71 87 9.981655796376424E-1
71 126 9.976244143985166E-1
72 29 9.985971922133076E-1
72 56 4.981680276761826E-1
72 79 9.991702365563021E-1
73 38 9.983286139283178E-1
73 68 9.919729339586403E-1
73 101 9.898888241483519E-1
74 62 4.992270444766916E-1
74 104 4.9898913082718765E-1
74 125 9.990191852854932E-1
75 16 9.978935800133087E-1
75 63 4.9888508929004854E-1
75 77 9.996492670104725E-1
75 86 9.985620703187126E-1
75 123 4.986786710536004E-1
76 69 4.9172805990849194E-1
76 78 9.963875569144135E-1
76 93 4.9160571740708076E-1
76 127 9.99946440132979E-1
77 16 9.973388168185333E-1
77 75 9.996492670104725E-1
77 86 9.993478163169615E-1
78 69 9.944772344888735E-1
78 76 9.963875569144135E-1
78 112 4.954922391866445E-1
78 127 9.967524166797339E-1
79 29 9.983923514923242E-1
79 48 4.9845576594355456E-1
79 56 9.987432053986908E-1
79 72 9.991702365563021E-1
79 90 4.9629156406614733E-1
80 31 9.994259857461415E-1
80 57 9.992604196488989E-1
80 60 4.993223431355458E-1
80 120 9.998866279699464E-1
81 53 4.871902378264967E-1
81 58 4.963496136579192E-1
81 98 9.996008924951393E-1
81 114 9.968742245800776E-1
82 14 9.955341900392402E-1
82 102 9.899558458224837E-1
82 115 4.86538407693601E-1
82 116 9.99435982971696E-1
83 26 9.97594315700505E-1
83 67 9.982256988005612E-1
83 110 4.974367272720694E-1
83 121 9.993972994383372E-1
84 1 9.997379374728474E-1
84 34 4.978682566968925E-1
84 55 4.9853119290977E-1
84 111 9.996715454404971E-1
85 7 9.893854502616579E-1
85 10 4.9252564542997557E-1
85 58 4.954387651624843E-1
85 108 4.861090854247746E-1
86 51 9.977795751603201E-1
86 75 9.985620703187126E-1
86 77 9.993478163169615E-1
87 39 9.99652570929109E-1
87 71 9.981655796376424E-1
87 126 9.995034844998403E-1
88 5 4.9356654878425454E-1
88 23 4.9877080104325905E-1
88 42 9.980427900021942E-1
88 43 4.967319213218707E-1
88 92 9.957766344661948E-1
89 53 4.7422000831156486E-1
89 91 9.24212358441015E-1
89 94 4.534121707459354E-1
90 33 4.9520574110888815E-1
90 41 4.8179821439556964E-1
90 48 9.976264167377672E-1
90 65 9.945178880511699E-1
90 70 4.830412377340038E-1
90 79 4.9629156406614733E-1
91 40 9.887038111506097E-1
91 89 9.24212358441015E-1
91 115 4.629037308740899E-1
92 4 9.996112970056185E-1
92 23 9.987745693211011E-1
92 42 4.975108809737811E-1
92 88 9.957766344661948E-1
93 17 9.994700768802619E-1
93 30 9.995137193094781E-1
93 76 4.9160571740708076E-1
94 5 4.7820600542094804E-1
94 13 9.897964828233292E-1
94 53 4.772466898929543E-1
94 89 4.534121707459354E-1
95 38 9.885022388029541E-1
95 40 4.698845193884692E-1
95 101 9.88085399398709E-1
95 102 9.928260825155655E-1
96 11 4.68917780538369E-1
96 32 4.7168539048936675E-1
96 46 9.343461879902326E-1
97 43 4.9124206833059525E-1
97 46 4.554227989903488E-1
97 66 9.842260176937938E-1
97 105 9.778093673822764E-1
98 5 4.9340933884561516E-1
98 10 9.946390164894855E-1
98 53 4.8392247235968777E-1
98 58 4.972818680064251E-1
98 81 9.996008924951393E-1
98 114 9.958065634112262E-1
99 47 9.936201887632629E-1
99 65 4.9611243077855877E-1
99 106 9.92033016790374E-1
100 50 4.622493974004352E-1
100 59 9.665316160221333E-1
100 122 9.479455353503976E-1
101 12 4.8125235394052346E-1
101 38 9.963980497521577E-1
101 73 9.898888241483519E-1
101 95 9.88085399398709E-1
102 82 9.899558458224837E-1
102 95 9.928260825155655E-1
102 116 4.925744798660459E-1
103 3 9.955487971339636E-1
103 9 4.755210062571623E-1
103 22 9.993025291932645E-1
103 61 4.705731151645987E-1
103 63 9.964898150141059E-1
104 18 4.984486122379555E-1
104 45 4.99050517909486E-1
104 62 4.9930600348559506E-1
104 74 4.9898913082718765E-1
104 125 4.9921011358298545E-1
105 11 4.795803213067008E-1
105 32 4.7802693397695006E-1
105 43 4.8167398453051846E-1
105 46 4.3017853042662635E-1
105 66 9.940313951793012E-1
105 97 9.778093673822764E-1
106 47 4.864404052469617E-1
106 48 4.983027235877579E-1
106 65 9.99377107145294E-1
106 99 9.92033016790374E-1
107 2 9.92678901859353E-1
107 12 4.842998897404633E-1
107 69 9.973462932909681E-1
107 112 9.979321274507736E-1
108 7 4.9125772936927187E-1
108 68 9.820249418674337E-1
108 85 4.861090854247746E-1
109 20 4.890571238166761E-1
109 49 4.91145822448703E-1
109 115 9.848245630393228E-1
110 21 4.9207456262696453E-1
110 37 4.9783691529275664E-1
110 83 4.974367272720694E-1
110 119 9.967886912381566E-1
111 1 9.994313962026423E-1
111 30 4.937643682707218E-1
111 55 4.990317268250529E-1
111 84 9.996715454404971E-1
112 2 4.929737765464033E-1
112 69 9.995222015502407E-1
112 78 4.954922391866445E-1
112 107 9.979321274507736E-1
113 26 4.981341941596166E-1
113 67 4.9904748683867556E-1
113 121 4.983123014016151E-1
114 7 9.968748199803422E-1
114 53 4.8674407677532183E-1
114 58 4.972306271475911E-1
114 81 9.968742245800776E-1
114 98 9.958065634112262E-1
115 40 4.845912516690398E-1
115 82 4.86538407693601E-1
115 91 4.629037308740899E-1
115 109 9.848245630393228E-1
115 116 4.8749869145323843E-1
116 14 9.956612826356593E-1
116 49 9.921128693588707E-1
116 82 9.99435982971696E-1
116 102 4.925744798660459E-1
116 115 4.8749869145323843E-1
117 19 4.6828009931707276E-1
117 27 9.961935265161824E-1
117 50 4.6605079965162505E-1
117 52 9.835903092337063E-1
117 54 9.751087434650535E-1
118 15 9.969290448507526E-1
118 24 9.978120339997403E-1
118 28 4.9682300408291924E-1
119 37 9.998604553941912E-1
119 64 9.990052830630535E-1
119 110 9.967886912381566E-1
120 31 9.993032076115741E-1
120 55 9.995192184248335E-1
120 57 4.994964648121512E-1
120 60 4.9964712748463297E-1
120 80 9.998866279699464E-1
121 26 9.993655673391448E-1
121 67 9.996316172565363E-1
121 83 9.993972994383372E-1
121 113 4.983123014016151E-1
122 50 9.974459377113378E-1
122 59 9.973170189888407E-1
122 100 9.479455353503976E-1
123 16 9.989865086226862E-1
123 63 4.979723729571386E-1
123 75 4.986786710536004E-1
124 8 9.993886086782073E-1
124 45 4.9910020751209283E-1
124 62 4.9820101528774013E-1
125 45 9.992909606960084E-1
125 62 9.999135688309289E-1
125 74 9.990191852854932E-1
125 104 4.9921011358298545E-1
126 4 4.9741778867297504E-1
126 39 9.988885329752495E-1
126 71 9.976244143985166E-1
126 87 9.995034844998403E-1
127 69 4.923782313161698E-1
127 76 9.99946440132979E-1
127 78 9.967524166797339E-1
