%%MatrixMarket matrix coordinate real general
%
128 128 678
1 30 4.9999999848093246E-1
1 32 4.9999999726329725E-1
1 52 4.9999999840580434E-1
1 81 9.999999995528489E-1
1 109 9.99999999029656E-1
2 12 9.999999837180931E-1
2 66 4.9999998478326624E-1
2 105 9.99999987463875E-1
2 110 9.999999758557412E-1
3 9 4.99999978795776E-1
3 22 9.999999852920104E-1
3 59 4.9999997102953114E-1
3 61 4.9999998847860533E-1
3 72 4.999999792038644E-1
3 83 4.999999795617314E-1
4 23 9.999999977768091E-1
4 40 4.999999954930828E-1
4 68 4.9999999439434445E-1
4 85 4.999999947774726E-1
4 89 9.999999993367232E-1
4 117 9.999999971327667E-1
4 127 4.9999999558319624E-1
5 13 9.999999724727578E-1
5 85 4.999999889529689E-1
5 89 4.999999866145959E-1
5 91 4.9999996198361363E-1
5 96 4.9999998868122114E-1
6 21 4.9999998669415247E-1
6 25 9.99999999990218E-1
6 35 4.9999999733715833E-1
6 41 9.999999990452737E-1
6 62 4.999999986684781E-1
7 50 4.9999997035266913E-1
7 55 4.999999917149164E-1
7 78 4.99999989323077E-1
7 82 9.999999817942232E-1
7 106 4.9999998495329606E-1
7 113 9.999999946599293E-1
8 18 4.9999999486735375E-1
8 42 9.999999994124997E-1
8 57 4.99999998273115E-1
8 60 9.999999978143032E-1
8 125 9.999999989566152E-1
8 126 4.999999983239136E-1
9 3 4.99999978795776E-1
9 22 4.999999465408938E-1
9 59 9.999999828138866E-1
9 61 4.999999399304506E-1
10 32 4.999999931468997E-1
10 55 9.999999979119656E-1
10 78 9.999999859303168E-1
10 82 4.999999871520859E-1
10 96 9.999999908292752E-1
11 21 4.999999779921586E-1
11 31 9.99999999526747E-1
11 94 4.999999452522121E-1
11 103 4.9999996443160943E-1
11 108 4.9999994954211485E-1
12 2 9.999999837180931E-1
12 99 4.9999996740047037E-1
12 105 4.9999997278523733E-1
12 110 4.999999601839764E-1
13 5 9.999999724727578E-1
13 85 4.999999689164891E-1
13 91 9.999999825028425E-1
13 95 9.999999482369101E-1
14 16 9.999999968836418E-1
14 22 4.9999999444573584E-1
14 61 9.999999960036164E-1
14 72 9.99999996396648E-1
14 74 4.999999965989059E-1
14 93 4.9999999678183354E-1
14 124 9.99999999562603E-1
15 34 4.999999869578875E-1
15 46 9.999999865685358E-1
15 79 9.999999923640295E-1
15 115 9.999999925818148E-1
16 14 9.999999968836418E-1
16 20 4.9999998699500936E-1
16 72 9.999999964025461E-1
16 74 9.999999954538292E-1
16 124 9.999999982700535E-1
17 29 9.999999992591713E-1
17 58 4.9999998768798226E-1
17 90 9.999999990956836E-1
17 109 4.9999998764265335E-1
18 8 4.9999999486735375E-1
18 20 4.999999887392408E-1
18 42 4.999999952207113E-1
18 102 4.9999999734913597E-1
18 125 4.9999999478181967E-1
19 26 4.999999296176044E-1
19 33 4.999999065129982E-1
19 51 9.999999803661411E-1
19 98 4.9999992274243665E-1
19 101 4.9999994850249835E-1
19 116 4.9999994409139226E-1
20 16 4.9999998699500936E-1
20 18 4.999999887392408E-1
20 28 4.999999813510795E-1
20 46 9.999999898005258E-1
20 107 4.999999811235516E-1
21 6 4.9999998669415247E-1
21 11 4.999999779921586E-1
21 25 4.9999998632395387E-1
21 31 4.999999733450069E-1
21 41 4.999999912546185E-1
21 108 4.9999998637047816E-1
22 3 9.999999852920104E-1
22 9 4.999999465408938E-1
22 14 4.9999999444573584E-1
22 59 4.999999380380548E-1
22 61 9.999999957324149E-1
22 93 4.9999999257722033E-1
23 4 9.999999977768091E-1
23 40 9.999999976771993E-1
23 85 9.999999958006796E-1
23 89 9.999999979080686E-1
24 27 9.999999914767003E-1
24 34 9.99999993001739E-1
24 57 4.999999791173125E-1
24 118 9.99999996263125E-1
25 6 9.99999999990218E-1
25 21 4.9999998632395387E-1
25 35 9.999999949702314E-1
25 41 9.999999988927682E-1
25 62 9.999999975968455E-1
26 19 4.999999296176044E-1
26 33 4.99999882923382E-1
26 44 4.999999723995662E-1
26 49 9.999999883460372E-1
26 51 4.99999971858157E-1
26 101 9.999999753700332E-1
26 116 9.999999934935642E-1
27 24 9.999999914767003E-1
27 34 9.999999920006797E-1
27 57 4.9999999317382554E-1
27 118 9.999999891251686E-1
28 20 4.999999813510795E-1
28 48 9.999999954814064E-1
28 53 9.999999961697335E-1
28 69 9.999999976050556E-1
28 76 9.999999972550597E-1
29 17 9.999999992591713E-1
29 58 4.9999998776841104E-1
29 90 9.999999991701777E-1
29 109 4.9999998929478995E-1
30 1 4.9999999848093246E-1
30 32 4.9999999656157956E-1
30 52 9.999999985268387E-1
30 54 4.999999978130237E-1
30 58 9.999999973383987E-1
30 77 9.999999990204202E-1
30 81 4.9999999712831916E-1
30 120 9.99999998810821E-1
30 122 4.9999999783627724E-1
31 11 9.99999999526747E-1
31 21 4.999999733450069E-1
31 94 9.99999900544156E-1
31 103 4.9999996166412525E-1
32 1 4.9999999726329725E-1
32 10 4.999999931468997E-1
32 30 4.9999999656157956E-1
32 117 9.999999936100937E-1
32 122 9.999999979700159E-1
33 19 4.999999065129982E-1
33 26 4.99999882923382E-1
33 51 4.999999220931934E-1
33 116 4.9999986443692906E-1
34 15 4.999999869578875E-1
34 24 9.99999993001739E-1
34 27 9.999999920006797E-1
34 57 4.9999998727817796E-1
34 118 9.999999810107301E-1
35 6 4.9999999733715833E-1
35 25 9.999999949702314E-1
35 38 9.99999998857342E-1
35 41 4.9999999687395547E-1
35 62 9.999999992994136E-1
35 108 4.9999999630165776E-1
35 119 9.999999997619129E-1
36 70 9.999999971461415E-1
36 92 9.99999980270572E-1
36 99 9.999999938437889E-1
36 100 4.999999734147191E-1
37 54 9.999999977426838E-1
37 68 4.999999968582941E-1
37 77 4.9999999840805337E-1
37 84 9.999999994071647E-1
37 127 9.99999998102724E-1
38 35 9.99999998857342E-1
38 62 9.999999980996065E-1
38 65 4.999999913739747E-1
38 80 9.999999939510532E-1
38 108 4.999999951001786E-1
38 119 9.999999990348581E-1
38 121 4.99999994324495E-1
39 86 4.9999987215133934E-1
39 88 9.999999806184297E-1
39 92 4.999999470090334E-1
39 100 4.999999373082081E-1
39 114 9.999999465965524E-1
40 4 4.999999954930828E-1
40 23 9.999999976771993E-1
40 64 4.999999828606359E-1
40 85 9.999999966576245E-1
40 89 4.9999999574282616E-1
41 6 9.999999990452737E-1
41 21 4.999999912546185E-1
41 25 9.999999988927682E-1
41 35 4.9999999687395547E-1
41 62 4.9999999779840765E-1
42 8 9.999999994124997E-1
42 18 4.999999952207113E-1
42 57 4.999999967072521E-1
42 60 9.9999999947025E-1
42 102 4.9999999837859344E-1
42 125 9.999999969270472E-1
42 126 9.999999987899125E-1
43 91 4.999998685110563E-1
43 94 9.999998841449338E-1
43 95 4.999999203427965E-1
43 103 4.999998716982036E-1
44 26 4.999999723995662E-1
44 49 9.999999806160604E-1
44 63 4.999999759312177E-1
44 97 9.999999890808371E-1
44 104 4.999999765471479E-1
45 47 4.9999998869786333E-1
45 63 9.999999952261079E-1
45 69 4.9999999479354607E-1
45 76 9.999999947227569E-1
45 87 9.999999959457282E-1
45 104 9.99999994198862E-1
45 111 4.9999999242617765E-1
46 15 9.999999865685358E-1
46 20 9.999999898005258E-1
46 79 9.999999792824454E-1
46 107 4.999999847589573E-1
46 115 9.999999864907942E-1
47 45 4.9999998869786333E-1
47 67 4.999999741502042E-1
47 69 4.9999999085859914E-1
47 76 4.999999885190726E-1
47 87 9.999999891440953E-1
48 28 9.999999954814064E-1
48 53 9.999999956210771E-1
48 74 4.9999999627448427E-1
48 83 9.999999962076261E-1
49 26 9.999999883460372E-1
49 44 9.999999806160604E-1
49 101 9.999999460335596E-1
49 116 9.999999717719565E-1
50 7 4.9999997035266913E-1
50 78 4.9999997786104877E-1
50 86 4.999999548435729E-1
50 91 4.9999996027066296E-1
50 96 4.999999721202104E-1
50 113 4.9999997707950294E-1
51 19 9.999999803661411E-1
51 26 4.99999971858157E-1
51 33 4.999999220931934E-1
51 101 9.999999532066954E-1
51 116 9.999999569967528E-1
52 1 4.9999999840580434E-1
52 30 9.999999985268387E-1
52 58 9.999999998160746E-1
52 77 9.99999998381213E-1
52 81 4.9999999749044977E-1
52 109 4.999999983464733E-1
52 120 9.999999991795641E-1
53 28 9.999999961697335E-1
53 48 9.999999956210771E-1
53 69 9.999999937376376E-1
53 76 9.999999978544936E-1
53 104 4.999999929180061E-1
54 30 4.999999978130237E-1
54 37 9.999999977426838E-1
54 77 9.999999987377701E-1
54 84 4.9999999747612284E-1
54 120 4.999999991405095E-1
55 7 4.999999917149164E-1
55 10 9.999999979119656E-1
55 78 9.999999874988067E-1
55 82 4.999999921825812E-1
55 96 9.999999907001456E-1
55 113 9.999999905243416E-1
56 98 9.999999419238003E-1
56 101 4.9999996213313486E-1
56 116 4.9999993825417105E-1
56 123 9.999999954165414E-1
57 8 4.99999998273115E-1
57 24 4.999999791173125E-1
57 27 4.9999999317382554E-1
57 34 4.9999998727817796E-1
57 42 4.999999967072521E-1
57 60 4.999999945760493E-1
57 118 4.9999997576779326E-1
57 125 9.999999992911145E-1
58 17 4.9999998768798226E-1
58 29 4.9999998776841104E-1
58 30 9.999999973383987E-1
58 52 9.999999998160746E-1
58 77 4.999999988430975E-1
58 109 4.9999999817954927E-1
58 120 9.999999987955367E-1
59 3 4.9999997102953114E-1
59 9 9.999999828138866E-1
59 22 4.999999380380548E-1
59 61 4.999999230575274E-1
60 8 9.999999978143032E-1
60 42 9.9999999947025E-1
60 57 4.999999945760493E-1
60 71 4.999999986802767E-1
60 102 9.999999976303657E-1
60 125 4.999999969253025E-1
60 126 9.999999998525375E-1
61 3 4.9999998847860533E-1
61 9 4.999999399304506E-1
61 14 9.999999960036164E-1
61 22 9.999999957324149E-1
61 59 4.999999230575274E-1
61 72 4.9999999809577966E-1
61 74 4.9999999655754884E-1
61 83 4.9999999590704997E-1
62 6 4.999999986684781E-1
62 25 9.999999975968455E-1
62 35 9.999999992994136E-1
62 38 9.999999980996065E-1
62 41 4.9999999779840765E-1
62 119 9.999999983021158E-1
63 44 4.999999759312177E-1
63 45 9.999999952261079E-1
63 67 4.9999995411303677E-1
63 87 9.999999906214971E-1
63 97 4.9999999334168344E-1
63 104 9.999999989369808E-1
63 111 9.999999894460113E-1
64 40 4.999999828606359E-1
64 85 4.9999998058472983E-1
64 95 9.999999728742466E-1
64 103 9.999999897867353E-1
65 38 4.999999913739747E-1
65 80 9.999999969702599E-1
65 112 9.999999967468249E-1
65 121 9.999999993714038E-1
66 2 4.9999998478326624E-1
66 73 4.999999857695935E-1
66 75 9.999999905517564E-1
66 105 9.999999954666186E-1
66 110 9.999999991846559E-1
66 128 9.999999737934696E-1
67 47 4.999999741502042E-1
67 63 4.9999995411303677E-1
67 87 4.9999997056541257E-1
67 111 4.999999798676769E-1
68 4 4.9999999439434445E-1
68 37 4.999999968582941E-1
68 84 9.999999968675081E-1
68 127 9.999999959423039E-1
69 28 9.999999976050556E-1
69 45 4.9999999479354607E-1
69 47 4.9999999085859914E-1
69 53 9.999999937376376E-1
69 76 9.999999985837922E-1
70 36 9.999999971461415E-1
70 92 9.999999754047317E-1
70 99 9.999999826619983E-1
70 100 4.999999661380876E-1
70 106 4.99999962548547E-1
71 60 4.999999986802767E-1
71 93 9.999999969654768E-1
71 102 4.9999999827365815E-1
71 126 9.999999983258572E-1
72 3 4.999999792038644E-1
72 14 9.99999996396648E-1
72 16 9.999999964025461E-1
72 61 4.9999999809577966E-1
72 74 9.999999994015261E-1
72 83 9.999999975450506E-1
72 124 4.999999977427592E-1
73 66 4.999999857695935E-1
73 75 9.999999938258228E-1
73 90 9.999999711146663E-1
73 128 9.999999999086215E-1
74 14 4.999999965989059E-1
74 16 9.999999954538292E-1
74 48 4.9999999627448427E-1
74 61 4.9999999655754884E-1
74 72 9.999999994015261E-1
74 83 9.999999988869772E-1
75 66 9.999999905517564E-1
75 73 9.999999938258228E-1
75 105 4.999999921730553E-1
75 110 9.999999845492912E-1
75 128 9.999999944504353E-1
76 28 9.999999972550597E-1
76 45 9.999999947227569E-1
76 47 4.999999885190726E-1
76 53 9.999999978544936E-1
76 69 9.999999985837922E-1
77 30 9.999999990204202E-1
77 37 4.9999999840805337E-1
77 52 9.99999998381213E-1
77 54 9.999999987377701E-1
77 58 4.999999988430975E-1
77 120 9.999999998065704E-1
78 7 4.99999989323077E-1
78 10 9.999999859303168E-1
78 50 4.9999997786104877E-1
78 55 9.999999874988067E-1
78 91 4.999999515628061E-1
78 96 9.999999993189657E-1
78 113 9.999999946589103E-1
79 15 9.999999923640295E-1
79 46 9.999999792824454E-1
79 100 9.999999827775048E-1
79 114 4.999999767189886E-1
79 115 9.999999990374857E-1
80 38 9.999999939510532E-1
80 65 9.999999969702599E-1
80 108 4.999999956156736E-1
80 112 4.999999956017389E-1
80 119 4.999999963439643E-1
80 121 9.999999989714511E-1
81 1 9.999999995528489E-1
81 30 4.9999999712831916E-1
81 52 4.9999999749044977E-1
81 82 4.9999998684823044E-1
81 109 9.999999994395471E-1
82 7 9.999999817942232E-1
82 10 4.999999871520859E-1
82 55 4.999999921825812E-1
82 81 4.9999998684823044E-1
82 106 4.999999759659445E-1
83 3 4.999999795617314E-1
83 48 9.999999962076261E-1
83 61 4.9999999590704997E-1
83 72 9.999999975450506E-1
83 74 9.999999988869772E-1
84 37 9.999999994071647E-1
84 54 4.9999999747612284E-1
84 68 9.999999968675081E-1
84 127 9.99999999152708E-1
85 4 4.999999947774726E-1
85 5 4.999999889529689E-1
85 13 4.999999689164891E-1
85 23 9.999999958006796E-1
85 40 9.999999966576245E-1
85 64 4.9999998058472983E-1
85 89 9.999999927794573E-1
85 95 4.9999996265468283E-1
86 39 4.9999987215133934E-1
86 50 4.999999548435729E-1
86 88 9.999998655401745E-1
86 91 4.999999165684667E-1
87 45 9.999999959457282E-1
87 47 9.999999891440953E-1
87 63 9.999999906214971E-1
87 67 4.9999997056541257E-1
87 111 9.999999933140857E-1
88 39 9.999999806184297E-1
88 86 9.999998655401745E-1
88 92 4.999999327529203E-1
88 114 4.999999342410611E-1
89 4 9.999999993367232E-1
89 5 4.999999866145959E-1
89 23 9.999999979080686E-1
89 40 4.9999999574282616E-1
89 85 9.999999927794573E-1
89 117 9.999999972343907E-1
90 17 9.999999990956836E-1
90 29 9.999999991701777E-1
90 73 9.999999711146663E-1
90 109 4.999999846908481E-1
90 128 4.999999842806805E-1
91 5 4.9999996198361363E-1
91 13 9.999999825028425E-1
91 43 4.999998685110563E-1
91 50 4.9999996027066296E-1
91 78 4.999999515628061E-1
91 86 4.999999165684667E-1
92 36 9.99999980270572E-1
92 39 4.999999470090334E-1
92 70 9.999999754047317E-1
92 88 4.999999327529203E-1
92 99 9.999999795509986E-1
92 100 9.999999877168061E-1
93 14 4.9999999678183354E-1
93 22 4.9999999257722033E-1
93 71 9.999999969654768E-1
93 102 9.99999996831597E-1
93 124 9.999999935529791E-1
94 11 4.999999452522121E-1
94 31 9.99999900544156E-1
94 43 9.999998841449338E-1
94 103 4.9999993583280744E-1
95 13 9.999999482369101E-1
95 43 4.999999203427965E-1
95 64 9.999999728742466E-1
95 85 4.9999996265468283E-1
95 103 9.999999617152401E-1
96 5 4.9999998868122114E-1
96 10 9.999999908292752E-1
96 50 4.999999721202104E-1
96 55 9.999999907001456E-1
96 78 9.999999993189657E-1
96 113 9.999999928307335E-1
97 44 9.999999890808371E-1
97 63 4.9999999334168344E-1
97 104 9.99999986353473E-1
97 111 4.999999866664583E-1
98 19 4.9999992274243665E-1
98 56 9.999999419238003E-1
98 101 4.999999092516078E-1
98 123 9.999999087974416E-1
99 12 4.9999996740047037E-1
99 36 9.999999938437889E-1
99 70 9.999999826619983E-1
99 92 9.999999795509986E-1
99 100 9.99999961389645E-1
100 36 4.999999734147191E-1
100 39 4.999999373082081E-1
100 70 4.999999661380876E-1
100 79 9.999999827775048E-1
100 92 9.999999877168061E-1
100 99 9.99999961389645E-1
100 115 9.999999744733203E-1
101 19 4.9999994850249835E-1
101 26 9.999999753700332E-1
101 49 9.999999460335596E-1
101 51 9.999999532066954E-1
101 56 4.9999996213313486E-1
101 98 4.999999092516078E-1
101 116 9.999999941244204E-1
101 123 4.9999995727532076E-1
102 18 4.9999999734913597E-1
102 42 4.9999999837859344E-1
102 60 9.999999976303657E-1
102 71 4.9999999827365815E-1
102 93 9.99999996831597E-1
102 126 9.999999973026931E-1
103 11 4.9999996443160943E-1
103 31 4.9999996166412525E-1
103 43 4.999998716982036E-1
103 64 9.999999897867353E-1
103 94 4.9999993583280744E-1
103 95 9.999999617152401E-1
103 108 4.999999672672359E-1
103 112 4.999999661762199E-1
104 44 4.999999765471479E-1
104 45 9.99999994198862E-1
104 53 4.999999929180061E-1
104 63 9.999999989369808E-1
104 97 9.99999986353473E-1
104 111 4.999999908427179E-1
105 2 9.99999987463875E-1
105 12 4.9999997278523733E-1
105 66 9.999999954666186E-1
105 75 4.999999921730553E-1
105 110 9.999999964684476E-1
106 7 4.9999998495329606E-1
106 70 4.99999962548547E-1
106 82 4.999999759659445E-1
106 113 4.999999700331829E-1
107 20 4.999999811235516E-1
107 46 4.999999847589573E-1
107 114 9.999999739114469E-1
107 115 4.999999809091889E-1
108 11 4.9999994954211485E-1
108 21 4.9999998637047816E-1
108 35 4.9999999630165776E-1
108 38 4.999999951001786E-1
108 80 4.999999956156736E-1
108 103 4.999999672672359E-1
108 112 4.999999906641554E-1
108 119 9.999999945125221E-1
109 1 9.99999999029656E-1
109 17 4.9999998764265335E-1
109 29 4.9999998929478995E-1
109 52 4.999999983464733E-1
109 58 4.9999999817954927E-1
109 81 9.999999994395471E-1
109 90 4.999999846908481E-1
110 2 9.999999758557412E-1
110 12 4.999999601839764E-1
110 66 9.999999991846559E-1
110 75 9.999999845492912E-1
110 105 9.999999964684476E-1
111 45 4.9999999242617765E-1
111 63 9.999999894460113E-1
111 67 4.999999798676769E-1
111 87 9.999999933140857E-1
111 97 4.999999866664583E-1
111 104 4.999999908427179E-1
112 65 9.999999967468249E-1
112 80 4.999999956017389E-1
112 103 4.999999661762199E-1
112 108 4.999999906641554E-1
112 121 9.999999942316535E-1
113 7 9.999999946599293E-1
113 50 4.9999997707950294E-1
113 55 9.999999905243416E-1
113 78 9.999999946589103E-1
113 96 9.999999928307335E-1
113 106 4.999999700331829E-1
114 39 9.999999465965524E-1
114 79 4.999999767189886E-1
114 88 4.999999342410611E-1
114 107 9.999999739114469E-1
114 115 4.9999997840095245E-1
115 15 9.999999925818148E-1
115 46 9.999999864907942E-1
115 79 9.999999990374857E-1
115 100 9.999999744733203E-1
115 107 4.999999809091889E-1
115 114 4.9999997840095245E-1
116 19 4.9999994409139226E-1
116 26 9.999999934935642E-1
116 33 4.9999986443692906E-1
116 49 9.999999717719565E-1
116 51 9.999999569967528E-1
116 56 4.9999993825417105E-1
116 101 9.999999941244204E-1
116 123 4.999999333054821E-1
117 4 9.999999971327667E-1
117 32 9.999999936100937E-1
117 89 9.999999972343907E-1
117 122 9.999999962018515E-1
118 24 9.99999996263125E-1
118 27 9.999999891251686E-1
118 34 9.999999810107301E-1
118 57 4.9999997576779326E-1
119 35 9.999999997619129E-1
119 38 9.999999990348581E-1
119 62 9.999999983021158E-1
119 80 4.999999963439643E-1
119 108 9.999999945125221E-1
120 30 9.99999998810821E-1
120 52 9.999999991795641E-1
120 54 4.999999991405095E-1
120 58 9.999999987955367E-1
120 77 9.999999998065704E-1
121 38 4.99999994324495E-1
121 65 9.999999993714038E-1
121 80 9.999999989714511E-1
121 112 9.999999942316535E-1
122 30 4.9999999783627724E-1
122 32 9.999999979700159E-1
122 117 9.999999962018515E-1
122 127 9.999999959491339E-1
123 56 9.999999954165414E-1
123 98 9.999999087974416E-1
123 101 4.9999995727532076E-1
123 116 4.999999333054821E-1
124 14 9.99999999562603E-1
124 16 9.999999982700535E-1
124 72 4.999999977427592E-1
124 93 9.999999935529791E-1
125 8 9.999999989566152E-1
125 18 4.9999999478181967E-1
125 42 9.999999969270472E-1
125 57 9.999999992911145E-1
125 60 4.999999969253025E-1
126 8 4.999999983239136E-1
126 42 9.999999987899125E-1
126 60 9.999999998525375E-1
126 71 9.999999983258572E-1
126 102 9.999999973026931E-1
127 4 4.9999999558319624E-1
127 37 9.99999998102724E-1
127 68 9.999999959423039E-1
127 84 9.99999999152708E-1
127 122 9.999999959491339E-1
128 66 9.999999737934696E-1
128 73 9.999999999086215E-1
128 75 9.999999944504353E-1
128 90 4.999999842806805E-1
