%%MatrixMarket matrix coordinate real general
%
128 128 1820
1 7 4.999999616698027E-1
1 10 4.999999895525839E-1
1 17 4.9999998245270577E-1
1 29 4.999999842825197E-1
1 30 9.999999969618649E-1
1 32 9.999999945265945E-1
1 37 4.9999999199520684E-1
1 52 9.999999968116087E-1
1 54 9.999999862577958E-1
1 55 4.9999998650462185E-1
1 58 9.999999957012331E-1
1 77 9.999999932832042E-1
1 78 4.9999996538278424E-1
1 81 9.999999995528489E-1
1 82 4.9999998321274625E-1
1 90 4.9999997880441366E-1
1 109 9.99999999029656E-1
1 120 9.999999940062265E-1
1 122 9.999999921666353E-1
2 12 9.999999837180931E-1
2 36 9.999998387607286E-1
2 66 9.999999695665325E-1
2 70 4.9999990422350593E-1
2 73 9.999999038675841E-1
2 75 9.999999459861809E-1
2 99 9.999998671267738E-1
2 105 9.99999987463875E-1
2 106 4.9999992424490575E-1
2 110 9.999999758557412E-1
2 128 9.999999058835547E-1
3 9 9.99999957591552E-1
3 14 4.999999774238305E-1
3 22 9.999999852920104E-1
3 48 4.9999997132335383E-1
3 59 9.999999420590623E-1
3 61 9.999999769572107E-1
3 72 4.999999792038644E-1
3 74 4.9999997657747836E-1
3 83 4.999999795617314E-1
3 93 4.999999704468333E-1
3 124 4.9999997278105246E-1
4 5 4.999999821394586E-1
4 23 9.999999977768091E-1
4 32 4.999999912123857E-1
4 37 4.9999999055429034E-1
4 40 9.999999909861657E-1
4 64 4.99999960899003E-1
4 68 9.999999887886889E-1
4 84 9.999999859274278E-1
4 85 9.999999895549452E-1
4 89 9.999999993367232E-1
4 95 4.999999297355782E-1
4 112 4.9999998170236326E-1
4 117 9.999999971327667E-1
4 122 9.9999998889954E-1
4 127 9.999999911663925E-1
5 4 4.999999821394586E-1
5 10 9.999999706082515E-1
5 13 9.999999724727578E-1
5 23 4.9999998258039013E-1
5 32 4.999999806647854E-1
5 40 4.9999997910038824E-1
5 43 4.9999977087070474E-1
5 50 4.999999441438661E-1
5 78 9.999999719272428E-1
5 85 9.999999779059378E-1
5 89 4.999999866145959E-1
5 91 4.9999996198361363E-1
5 95 4.999999506018531E-1
5 96 9.999999773624423E-1
5 113 4.999999723708409E-1
5 117 4.9999998500906945E-1
6 11 4.9999993111745306E-1
6 21 9.999999733883049E-1
6 25 9.99999999990218E-1
6 31 4.9999992292876105E-1
6 35 9.999999946743167E-1
6 38 9.99999990968172E-1
6 41 9.999999990452737E-1
6 62 9.999999973369562E-1
6 65 4.9999997461270834E-1
6 80 9.9999997088896E-1
6 108 9.999999782210655E-1
6 119 9.999999922051156E-1
6 121 9.99999959640165E-1
7 1 4.999999616698027E-1
7 10 4.9999998509166377E-1
7 50 9.999999407053383E-1
7 55 9.999999834298328E-1
7 70 4.999999122205489E-1
7 78 9.99999978646154E-1
7 81 4.9999996651421363E-1
7 82 9.999999817942232E-1
7 86 4.9999985762657756E-1
7 96 9.999999758167248E-1
7 106 9.999999699065921E-1
7 109 4.99999962761673E-1
7 113 9.999999946599293E-1
8 18 9.999999897347075E-1
8 24 4.9999997041133604E-1
8 27 9.99999977173024E-1
8 34 4.999999775944591E-1
8 42 9.999999994124997E-1
8 46 4.999999646507256E-1
8 57 9.9999999654623E-1
8 60 9.999999978143032E-1
8 71 9.999999903714785E-1
8 93 4.999999917534379E-1
8 102 9.999999940830685E-1
8 118 4.999999697174491E-1
8 124 4.9999998494003856E-1
8 125 9.999999989566152E-1
8 126 9.999999966478272E-1
9 3 9.99999957591552E-1
9 22 4.999999465408938E-1
9 44 4.999999320321854E-1
9 48 4.99999930488251E-1
9 49 9.999998608550489E-1
9 56 4.9999982787048947E-1
9 59 9.999999828138866E-1
9 61 4.999999399304506E-1
9 72 4.999999257109438E-1
9 83 4.9999993374363194E-1
9 97 4.999999281070763E-1
9 98 4.999996616041735E-1
9 101 4.999998826618776E-1
9 104 4.999999290411337E-1
9 116 4.9999988883723695E-1
9 123 4.9999985466060254E-1
10 1 4.999999895525839E-1
10 5 9.999999706082515E-1
10 7 4.9999998509166377E-1
10 13 4.999999478754865E-1
10 32 9.999999862937994E-1
10 50 4.9999994674243853E-1
10 55 9.999999979119656E-1
10 78 9.999999859303168E-1
10 81 9.99999981505327E-1
10 82 9.999999743041718E-1
10 91 4.9999991919863057E-1
10 96 9.999999908292752E-1
10 106 4.9999994382364993E-1
10 109 4.99999987405614E-1
10 113 9.999999830520324E-1
10 122 4.9999998691532754E-1
11 6 4.9999993111745306E-1
11 21 9.999999559843172E-1
11 25 4.999999303756914E-1
11 31 9.99999999526747E-1
11 35 4.999999324845489E-1
11 41 4.999999419915048E-1
11 43 4.999998033070385E-1
11 64 4.9999993556954825E-1
11 94 9.999998905044242E-1
11 103 9.999999288632189E-1
11 108 4.9999994954211485E-1
11 119 4.9999993286523803E-1
12 2 9.999999837180931E-1
12 24 4.999999290675321E-1
12 36 9.999999055045298E-1
12 66 9.999999104944995E-1
12 70 9.999998761208712E-1
12 75 9.999998832044942E-1
12 92 4.999999223393064E-1
12 99 9.999999348009407E-1
12 105 9.999999455704747E-1
12 106 4.99999925278562E-1
12 110 9.999999203679528E-1
13 5 9.999999724727578E-1
13 10 4.999999478754865E-1
13 23 4.9999995201191155E-1
13 40 4.9999995390313345E-1
13 43 4.9999986007707475E-1
13 50 4.9999994578684714E-1
13 64 4.99999951191087E-1
13 78 4.9999996483693826E-1
13 85 4.999999689164891E-1
13 86 4.9999986291651205E-1
13 89 4.999999533739448E-1
13 91 9.999999825028425E-1
13 94 4.999998042067187E-1
13 95 9.999999482369101E-1
13 96 4.999999653725478E-1
14 3 4.999999774238305E-1
14 16 9.999999968836418E-1
14 18 9.99999984559106E-1
14 20 4.9999997690712056E-1
14 22 9.999999888914717E-1
14 42 4.99999985923435E-1
14 48 4.9999998584322264E-1
14 59 4.9999989802677586E-1
14 60 4.999999877019685E-1
14 61 9.999999960036164E-1
14 71 9.999999818003901E-1
14 72 9.99999996396648E-1
14 74 9.999999931978119E-1
14 83 9.999999880685623E-1
14 93 9.999999935636671E-1
14 102 9.999999877132846E-1
14 124 9.99999999562603E-1
14 126 4.999999878672227E-1
15 18 4.9999996672542246E-1
15 20 9.999999562130805E-1
15 24 9.999999412660726E-1
15 27 4.999999729309692E-1
15 34 9.99999973915775E-1
15 36 4.9999991754863665E-1
15 39 4.9999987830174053E-1
15 46 9.999999865685358E-1
15 57 4.999999751901914E-1
15 79 9.999999923640295E-1
15 92 4.9999995280751547E-1
15 99 4.999999395748814E-1
15 100 9.999999609566963E-1
15 107 4.999999663420898E-1
15 114 4.9999995681088916E-1
15 115 9.999999925818148E-1
15 118 4.9999995524085555E-1
15 125 4.99999968993149E-1
16 14 9.999999968836418E-1
16 18 9.999999890341149E-1
16 20 4.9999998699500936E-1
16 22 9.99999974876249E-1
16 28 4.9999998636912535E-1
16 46 4.9999996844362327E-1
16 48 9.99999978260745E-1
16 61 9.999999891194913E-1
16 72 9.999999964025461E-1
16 74 9.999999954538292E-1
16 83 9.999999898424458E-1
16 93 9.99999985789015E-1
16 102 4.999999920468887E-1
16 124 9.999999982700535E-1
17 1 4.9999998245270577E-1
17 29 9.999999992591713E-1
17 52 4.9999998573919846E-1
17 58 4.9999998768798226E-1
17 66 4.999999329254703E-1
17 73 9.999999609630948E-1
17 75 4.999999625540658E-1
17 77 4.999999793688039E-1
17 81 4.999999840347403E-1
17 82 4.99999978510799E-1
17 90 9.999999990956836E-1
17 105 4.9999992119733405E-1
17 109 4.9999998764265335E-1
17 110 4.999999221100806E-1
17 120 4.9999998209684254E-1
17 128 9.999999581756065E-1
18 8 9.999999897347075E-1
18 14 9.99999984559106E-1
18 15 4.9999996672542246E-1
18 16 9.999999890341149E-1
18 20 4.999999887392408E-1
18 24 4.9999995233812655E-1
18 27 4.9999997506966254E-1
18 42 9.999999904414226E-1
18 46 4.999999793150572E-1
18 57 9.999999886476296E-1
18 60 9.999999887238552E-1
18 71 4.9999999135118095E-1
18 72 4.9999998685478586E-1
18 93 9.999999867032163E-1
18 102 9.999999946982719E-1
18 115 4.999999525144397E-1
18 124 9.999999890597366E-1
18 125 9.999999895636393E-1
18 126 9.999999867542166E-1
19 26 9.999998592352088E-1
19 33 9.999998130259964E-1
19 44 4.9999981923645753E-1
19 49 4.999998832897464E-1
19 51 9.999999803661411E-1
19 56 9.999998105506417E-1
19 97 4.999997536598142E-1
19 98 9.999998454848733E-1
19 101 9.999998970049967E-1
19 116 9.999998881827845E-1
19 123 9.999997575107558E-1
20 14 4.9999997690712056E-1
20 15 9.999999562130805E-1
20 16 4.9999998699500936E-1
20 18 4.999999887392408E-1
20 28 4.999999813510795E-1
20 46 9.999999898005258E-1
20 69 4.999999797855952E-1
20 72 4.999999781982221E-1
20 74 4.9999998008754626E-1
20 79 4.999999701075232E-1
20 107 9.999999622471032E-1
20 114 4.999999448450667E-1
20 115 4.9999997670796376E-1
20 124 4.999999807702813E-1
21 6 9.999999733883049E-1
21 11 9.999999559843172E-1
21 25 9.999999726479077E-1
21 31 9.999999466900138E-1
21 35 9.999999689905336E-1
21 38 4.9999997804586505E-1
21 41 9.99999982509237E-1
21 62 9.999999671143809E-1
21 80 4.999999686485657E-1
21 94 4.999998620575167E-1
21 103 4.999999530603556E-1
21 108 4.9999998637047816E-1
21 119 4.999999837003303E-1
22 3 9.999999852920104E-1
22 9 4.999999465408938E-1
22 14 9.999999888914717E-1
22 16 9.99999974876249E-1
22 59 4.999999380380548E-1
22 61 9.999999957324149E-1
22 71 4.999999867090531E-1
22 72 9.99999984050153E-1
22 74 9.999999780188569E-1
22 83 9.999999763620714E-1
22 93 9.999999851544407E-1
22 102 4.999999843408149E-1
22 124 9.999999842268468E-1
23 4 9.999999977768091E-1
23 5 4.9999998258039013E-1
23 13 4.9999995201191155E-1
23 32 4.999999845313728E-1
23 40 9.999999976771993E-1
23 64 4.9999997297146603E-1
23 65 4.999999814611235E-1
23 68 9.999999821433982E-1
23 84 4.9999998730238415E-1
23 85 9.999999958006796E-1
23 89 9.999999979080686E-1
23 95 4.9999994488217014E-1
23 112 9.999999733406973E-1
23 117 9.999999907832267E-1
23 122 4.9999998843894145E-1
23 127 4.9999999052843797E-1
24 8 4.9999997041133604E-1
24 12 4.999999290675321E-1
24 15 9.999999412660726E-1
24 18 4.9999995233812655E-1
24 27 9.999999914767003E-1
24 34 9.99999993001739E-1
24 42 4.999999644609423E-1
24 57 4.999999791173125E-1
24 60 4.999999589734224E-1
24 118 9.99999996263125E-1
24 125 4.9999997596775647E-1
24 126 4.9999995651998125E-1
25 6 9.99999999990218E-1
25 11 4.999999303756914E-1
25 21 9.999999726479077E-1
25 31 4.9999992213534467E-1
25 35 9.999999949702314E-1
25 38 9.99999991471831E-1
25 41 9.999999988927682E-1
25 62 9.999999975968455E-1
25 65 4.9999997517241623E-1
25 80 9.999999717141762E-1
25 108 9.999999785002591E-1
25 119 9.999999925553037E-1
25 121 9.999999606566343E-1
26 19 9.999998592352088E-1
26 33 4.99999882923382E-1
26 44 9.999999447991323E-1
26 49 9.999999883460372E-1
26 51 9.99999943716314E-1
26 56 9.999998148373967E-1
26 63 4.999998967843394E-1
26 97 4.9999994246526214E-1
26 98 4.999998344696921E-1
26 101 9.999999753700332E-1
26 104 4.999998985636022E-1
26 116 9.999999934935642E-1
26 123 9.999998062554708E-1
27 8 9.99999977173024E-1
27 15 4.999999729309692E-1
27 18 4.9999997506966254E-1
27 24 9.999999914767003E-1
27 34 9.999999920006797E-1
27 42 4.99999984808575E-1
27 57 9.999999863476511E-1
27 60 4.9999998114971805E-1
27 102 4.999999742221394E-1
27 118 9.999999891251686E-1
27 125 9.999999835106974E-1
27 126 4.999999794435095E-1
28 16 4.9999998636912535E-1
28 20 4.999999813510795E-1
28 45 9.999999846701152E-1
28 47 4.999999830475445E-1
28 48 9.999999954814064E-1
28 53 9.999999961697335E-1
28 63 4.999999826733611E-1
28 69 9.999999976050556E-1
28 72 9.999999778872014E-1
28 74 9.999999845605687E-1
28 76 9.999999972550597E-1
28 83 9.999999869333546E-1
28 87 9.999999731744575E-1
28 104 9.999999686219784E-1
28 107 4.9999995848006207E-1
28 111 4.9999997093159915E-1
29 1 4.999999842825197E-1
29 17 9.999999992591713E-1
29 52 4.999999860329731E-1
29 58 4.9999998776841104E-1
29 66 4.9999993391723435E-1
29 73 9.999999617874253E-1
29 75 4.9999996388508333E-1
29 81 4.99999986213494E-1
29 82 9.999999674149225E-1
29 90 9.999999991701777E-1
29 105 4.999999239616624E-1
29 109 4.9999998929478995E-1
29 110 4.9999992328321335E-1
29 120 4.999999818919232E-1
29 128 9.999999586934017E-1
30 1 9.999999969618649E-1
30 32 9.999999931231591E-1
30 37 9.999999948292375E-1
30 52 9.999999985268387E-1
30 54 9.999999956260474E-1
30 58 9.999999973383987E-1
30 68 4.9999998939359025E-1
30 77 9.999999990204202E-1
30 81 9.999999942566383E-1
30 84 4.999999958851172E-1
30 109 9.99999994475174E-1
30 117 4.999999919552799E-1
30 120 9.99999998810821E-1
30 122 9.999999956725545E-1
30 127 4.9999999616400914E-1
31 6 4.9999992292876105E-1
31 11 9.99999999526747E-1
31 21 9.999999466900138E-1
31 25 4.9999992213534467E-1
31 35 4.999999242561091E-1
31 41 4.9999993447466373E-1
31 43 4.99999808991053E-1
31 64 4.999999310221019E-1
31 94 9.99999900544156E-1
31 103 9.999999233282505E-1
31 108 4.999999425749831E-1
31 119 4.9999992467416443E-1
32 1 9.999999945265945E-1
32 4 4.999999912123857E-1
32 5 4.999999806647854E-1
32 10 9.999999862937994E-1
32 23 4.999999845313728E-1
32 30 9.999999931231591E-1
32 52 9.999999873320348E-1
32 55 4.999999881099723E-1
32 58 4.9999999211868723E-1
32 77 4.999999936721879E-1
32 78 4.9999997391567996E-1
32 81 9.999999927107169E-1
32 89 4.9999999135041273E-1
32 96 4.999999794164793E-1
32 109 9.999999890967745E-1
32 113 4.999999694943352E-1
32 117 9.999999936100937E-1
32 120 4.999999931081348E-1
32 122 9.999999979700159E-1
32 127 9.999999881839583E-1
33 19 9.999998130259964E-1
33 26 4.99999882923382E-1
33 44 4.999998334895843E-1
33 49 4.9999984963699595E-1
33 51 9.999998441863868E-1
33 63 4.9999973838713596E-1
33 67 4.999997904482919E-1
33 97 4.999997977812353E-1
33 98 4.99999661762473E-1
33 101 4.999998363312315E-1
33 111 4.9999977129235534E-1
33 116 4.9999986443692906E-1
34 8 4.999999775944591E-1
34 15 9.99999973915775E-1
34 24 9.99999993001739E-1
34 27 9.999999920006797E-1
34 42 4.9999997217808906E-1
34 46 9.999999419442032E-1
34 57 9.999999745563559E-1
34 79 9.999999415206665E-1
34 99 4.999999247423208E-1
34 100 4.999999515558853E-1
34 115 9.99999938955384E-1
34 118 9.999999810107301E-1
34 125 9.999999670227683E-1
35 6 9.999999946743167E-1
35 11 4.999999324845489E-1
35 21 9.999999689905336E-1
35 25 9.999999949702314E-1
35 31 4.999999242561091E-1
35 38 9.99999998857342E-1
35 41 9.999999937479109E-1
35 62 9.999999992994136E-1
35 65 9.999999761619895E-1
35 80 9.999999901289696E-1
35 108 9.999999926033155E-1
35 112 4.999999829013894E-1
35 119 9.999999997619129E-1
35 121 9.999999829179648E-1
36 2 9.999998387607286E-1
36 12 9.999999055045298E-1
36 15 4.9999991754863665E-1
36 39 4.999999068272573E-1
36 70 9.999999971461415E-1
36 79 4.9999993582717217E-1
36 88 4.99999905829766E-1
36 92 9.99999980270572E-1
36 99 9.999999938437889E-1
36 100 9.999999468294382E-1
36 106 9.999999141097263E-1
36 114 4.999999072683446E-1
36 115 4.9999992460690773E-1
37 1 4.9999999199520684E-1
37 4 4.9999999055429034E-1
37 30 9.999999948292375E-1
37 52 9.999999907253425E-1
37 54 9.999999977426838E-1
37 58 9.999999890903137E-1
37 68 9.999999937165882E-1
37 77 9.999999968161067E-1
37 84 9.999999994071647E-1
37 89 4.999999876033225E-1
37 109 4.9999998942112817E-1
37 117 9.999999847333676E-1
37 120 9.999999951268944E-1
37 122 9.999999927812226E-1
37 127 9.99999998102724E-1
38 6 9.99999990968172E-1
38 21 4.9999997804586505E-1
38 25 9.99999991471831E-1
38 35 9.99999998857342E-1
38 41 9.999999882637793E-1
38 62 9.999999980996065E-1
38 65 9.999999827479494E-1
38 80 9.999999939510532E-1
38 108 9.999999902003572E-1
38 112 9.99999971169183E-1
38 119 9.999999990348581E-1
38 121 9.9999998864899E-1
39 15 4.9999987830174053E-1
39 36 4.999999068272573E-1
39 70 9.999998315008162E-1
39 79 4.999999174388598E-1
39 86 4.9999987215133934E-1
39 88 9.999999806184297E-1
39 92 9.999998940180668E-1
39 99 4.999998921133498E-1
39 100 4.999999373082081E-1
39 107 4.999999254813194E-1
39 114 9.999999465965524E-1
39 115 4.9999991549770767E-1
40 4 9.999999909861657E-1
40 5 4.9999997910038824E-1
40 13 4.9999995390313345E-1
40 23 9.999999976771993E-1
40 43 4.9999975923768913E-1
40 64 9.999999657212718E-1
40 65 9.999999683727275E-1
40 68 4.999999862936055E-1
40 85 9.999999966576245E-1
40 89 9.999999914856523E-1
40 94 4.999998009254551E-1
40 95 4.999999565237183E-1
40 103 4.9999996099356764E-1
40 112 9.999999812655767E-1
40 117 4.9999998965041004E-1
40 122 4.999999799666452E-1
40 127 4.9999998354997827E-1
41 6 9.999999990452737E-1
41 11 4.999999419915048E-1
41 21 9.99999982509237E-1
41 25 9.999999988927682E-1
41 31 4.9999993447466373E-1
41 35 9.999999937479109E-1
41 38 9.999999882637793E-1
41 62 9.999999955968153E-1
41 65 4.999999728262904E-1
41 80 9.999999682708102E-1
41 108 9.99999980998803E-1
41 119 9.999999914144767E-1
41 121 4.9999997801509094E-1
42 8 9.999999994124997E-1
42 14 4.99999985923435E-1
42 18 9.999999904414226E-1
42 24 4.999999644609423E-1
42 27 4.99999984808575E-1
42 34 4.9999997217808906E-1
42 57 9.999999934145042E-1
42 60 9.9999999947025E-1
42 71 9.999999944970303E-1
42 93 9.999999889076749E-1
42 102 9.999999967571869E-1
42 118 4.999999642961834E-1
42 124 4.9999998779317095E-1
42 125 9.999999969270472E-1
42 126 9.999999987899125E-1
43 5 4.9999977087070474E-1
43 11 4.999998033070385E-1
43 13 4.9999986007707475E-1
43 31 4.99999808991053E-1
43 40 4.9999975923768913E-1
43 64 4.9999985408721304E-1
43 85 4.9999977522073735E-1
43 91 4.999998685110563E-1
43 94 9.999998841449338E-1
43 95 4.999999203427965E-1
43 103 4.999998716982036E-1
44 9 4.999999320321854E-1
44 19 4.9999981923645753E-1
44 26 9.999999447991323E-1
44 33 4.999998334895843E-1
44 45 4.9999995860107166E-1
44 49 9.999999806160604E-1
44 51 4.999998936690011E-1
44 53 4.9999994526277564E-1
44 56 4.9999980820078327E-1
44 63 4.999999759312177E-1
44 76 4.9999993829658324E-1
44 87 4.9999995309175377E-1
44 97 9.999999890808371E-1
44 98 4.999996820635623E-1
44 101 4.9999993099011314E-1
44 104 9.999999530942958E-1
44 111 4.9999996658041307E-1
44 116 9.999999068857663E-1
44 123 4.999998143371707E-1
45 28 9.999999846701152E-1
45 44 4.9999995860107166E-1
45 47 9.999999773957267E-1
45 48 9.999999775576303E-1
45 49 4.9999991073997685E-1
45 53 9.999999930043695E-1
45 63 9.999999952261079E-1
45 67 4.999999535851295E-1
45 69 9.999999895870921E-1
45 76 9.999999947227569E-1
45 87 9.999999959457282E-1
45 97 9.999999660517426E-1
45 104 9.99999994198862E-1
45 111 9.999999848523553E-1
46 8 4.999999646507256E-1
46 15 9.999999865685358E-1
46 16 4.9999996844362327E-1
46 18 4.999999793150572E-1
46 20 9.999999898005258E-1
46 34 9.999999419442032E-1
46 57 4.999999755924187E-1
46 79 9.999999792824454E-1
46 92 4.999999260495618E-1
46 100 4.999999621501433E-1
46 107 9.999999695179146E-1
46 114 4.9999996367566013E-1
46 115 9.999999864907942E-1
46 125 4.999999707431845E-1
47 28 4.999999830475445E-1
47 45 9.999999773957267E-1
47 53 4.999999807889109E-1
47 63 9.999999598422541E-1
47 67 9.999999483004084E-1
47 69 9.999999817171983E-1
47 76 9.999999770381452E-1
47 87 9.999999891440953E-1
47 104 4.9999997556670667E-1
47 107 9.999999530192879E-1
47 111 9.999999740635356E-1
47 114 4.9999993635315143E-1
48 3 4.9999997132335383E-1
48 9 4.99999930488251E-1
48 14 4.9999998584322264E-1
48 16 9.99999978260745E-1
48 28 9.999999954814064E-1
48 45 9.999999775576303E-1
48 53 9.999999956210771E-1
48 59 4.9999989431708025E-1
48 61 9.999999772435902E-1
48 63 4.9999998091559944E-1
48 69 9.999999872852211E-1
48 72 9.999999882512297E-1
48 74 9.999999925489685E-1
48 76 9.999999905110402E-1
48 83 9.999999962076261E-1
48 87 4.9999997898882814E-1
48 97 4.9999995877809905E-1
48 104 4.9999998456709516E-1
49 9 9.999998608550489E-1
49 19 4.999998832897464E-1
49 26 9.999999883460372E-1
49 33 4.9999984963699595E-1
49 44 9.999999806160604E-1
49 45 4.9999991073997685E-1
49 51 9.999998809767527E-1
49 56 4.999998823552318E-1
49 63 4.9999993678472987E-1
49 97 9.999999411688365E-1
49 98 4.999997833918912E-1
49 101 9.999999460335596E-1
49 104 4.9999993929010533E-1
49 111 4.999999212133364E-1
49 116 9.999999717719565E-1
49 123 4.9999988449336746E-1
50 5 4.999999441438661E-1
50 7 9.999999407053383E-1
50 10 4.9999994674243853E-1
50 13 4.9999994578684714E-1
50 55 4.999999530328847E-1
50 78 9.999999557220975E-1
50 86 9.999999096871458E-1
50 91 9.999999205413259E-1
50 96 9.999999442404208E-1
50 106 9.999998859566382E-1
50 113 9.999999541590059E-1
51 19 9.999999803661411E-1
51 26 9.99999943716314E-1
51 33 9.999998441863868E-1
51 44 4.999998936690011E-1
51 49 9.999998809767527E-1
51 56 9.999998293152066E-1
51 97 4.9999984212424964E-1
51 98 9.999997973662716E-1
51 101 9.999999532066954E-1
51 116 9.999999569967528E-1
51 123 9.999997914361511E-1
52 1 9.999999968116087E-1
52 17 4.9999998573919846E-1
52 29 4.999999860329731E-1
52 30 9.999999985268387E-1
52 32 9.999999873320348E-1
52 37 9.999999907253425E-1
52 54 9.999999951672502E-1
52 58 9.999999998160746E-1
52 77 9.99999998381213E-1
52 81 9.999999949808995E-1
52 84 4.999999929362458E-1
52 90 4.999999812948375E-1
52 109 9.999999966929466E-1
52 120 9.999999991795641E-1
52 122 9.999999893109426E-1
53 28 9.999999961697335E-1
53 44 4.9999994526277564E-1
53 45 9.999999930043695E-1
53 47 4.999999807889109E-1
53 48 9.999999956210771E-1
53 63 9.999999821907106E-1
53 67 4.999999267256052E-1
53 69 9.999999937376376E-1
53 72 4.9999998489700953E-1
53 74 9.999999772641817E-1
53 76 9.999999978544936E-1
53 83 9.99999983678627E-1
53 87 9.999999802347802E-1
53 97 4.999999723592545E-1
53 104 9.999999858360122E-1
53 111 4.999999786400798E-1
54 1 9.999999862577958E-1
54 30 9.999999956260474E-1
54 37 9.999999977426838E-1
54 52 9.999999951672502E-1
54 58 9.999999947862743E-1
54 68 9.999999850941721E-1
54 77 9.999999987377701E-1
54 81 4.9999999077238755E-1
54 84 9.999999949522457E-1
54 109 4.9999999201278156E-1
54 120 9.99999998281019E-1
54 122 4.999999937389355E-1
54 127 9.999999919818013E-1
55 1 4.9999998650462185E-1
55 7 9.999999834298328E-1
55 10 9.999999979119656E-1
55 32 4.999999881099723E-1
55 50 4.999999530328847E-1
55 78 9.999999874988067E-1
55 81 4.9999998865599776E-1
55 82 9.999999843651624E-1
55 91 4.9999991353353246E-1
55 96 9.999999907001456E-1
55 106 4.9999995809455344E-1
55 109 4.999999854588526E-1
55 113 9.999999905243416E-1
55 122 4.9999998015571134E-1
56 9 4.9999982787048947E-1
56 19 9.999998105506417E-1
56 26 9.999998148373967E-1
56 44 4.9999980820078327E-1
56 49 4.999998823552318E-1
56 51 9.999998293152066E-1
56 59 4.9999980898354307E-1
56 98 9.999999419238003E-1
56 101 9.999999242662697E-1
56 116 9.999998765083421E-1
56 123 9.999999954165414E-1
57 8 9.9999999654623E-1
57 15 4.999999751901914E-1
57 18 9.999999886476296E-1
57 24 4.999999791173125E-1
57 27 9.999999863476511E-1
57 34 9.999999745563559E-1
57 42 9.999999934145042E-1
57 46 4.999999755924187E-1
57 60 9.999999891520986E-1
57 71 9.99999976010432E-1
57 79 4.9999995275701614E-1
57 93 4.999999844721273E-1
57 102 9.99999985538749E-1
57 115 4.999999562760702E-1
57 118 4.9999997576779326E-1
57 125 9.999999992911145E-1
57 126 9.999999865708111E-1
58 1 9.999999957012331E-1
58 17 4.9999998768798226E-1
58 29 4.9999998776841104E-1
58 30 9.999999973383987E-1
58 32 4.9999999211868723E-1
58 37 9.999999890903137E-1
58 52 9.999999998160746E-1
58 54 9.999999947862743E-1
58 77 9.99999997686195E-1
58 81 9.999999940417746E-1
58 90 4.9999998341482E-1
58 109 9.999999963590985E-1
58 120 9.999999987955367E-1
58 122 4.9999999316917143E-1
59 3 9.999999420590623E-1
59 9 9.999999828138866E-1
59 14 4.9999989802677586E-1
59 22 4.999999380380548E-1
59 48 4.9999989431708025E-1
59 56 4.9999980898354307E-1
59 61 4.999999230575274E-1
59 72 4.9999990148516665E-1
59 74 4.9999989674542145E-1
59 83 4.999999050899846E-1
59 93 4.999998900053608E-1
59 123 4.9999984263452907E-1
59 124 4.999998883633498E-1
60 8 9.999999978143032E-1
60 14 4.999999877019685E-1
60 18 9.999999887238552E-1
60 24 4.999999589734224E-1
60 27 4.9999998114971805E-1
60 42 9.9999999947025E-1
60 57 9.999999891520986E-1
60 71 9.999999973605534E-1
60 93 9.99999992288912E-1
60 102 9.999999976303657E-1
60 118 4.999999596684423E-1
60 124 4.999999890918755E-1
60 125 9.99999993850605E-1
60 126 9.999999998525375E-1
61 3 9.999999769572107E-1
61 9 4.999999399304506E-1
61 14 9.999999960036164E-1
61 16 9.999999891194913E-1
61 22 9.999999957324149E-1
61 48 9.999999772435902E-1
61 59 4.999999230575274E-1
61 72 9.999999961915593E-1
61 74 9.999999931150977E-1
61 83 9.999999918140999E-1
61 93 9.999999850572423E-1
61 102 4.999999860900703E-1
61 124 9.999999930674563E-1
62 6 9.999999973369562E-1
62 21 9.999999671143809E-1
62 25 9.999999975968455E-1
62 35 9.999999992994136E-1
62 38 9.999999980996065E-1
62 41 9.999999955968153E-1
62 65 9.999999697773255E-1
62 80 9.999999857635157E-1
62 108 9.999999874919419E-1
62 119 9.999999983021158E-1
62 121 9.999999777001348E-1
63 26 4.999998967843394E-1
63 28 4.999999826733611E-1
63 33 4.9999973838713596E-1
63 44 4.999999759312177E-1
63 45 9.999999952261079E-1
63 47 9.999999598422541E-1
63 48 4.9999998091559944E-1
63 49 4.9999993678472987E-1
63 53 9.999999821907106E-1
63 67 4.9999995411303677E-1
63 69 9.999999708959548E-1
63 76 9.999999808467563E-1
63 87 9.999999906214971E-1
63 97 9.999999866833669E-1
63 104 9.999999989369808E-1
63 111 9.999999894460113E-1
64 4 4.99999960899003E-1
64 11 4.9999993556954825E-1
64 13 4.99999951191087E-1
64 23 4.9999997297146603E-1
64 31 4.999999310221019E-1
64 40 9.999999657212718E-1
64 43 4.9999985408721304E-1
64 65 4.9999996618550546E-1
64 85 9.999999611694597E-1
64 89 4.9999996282192133E-1
64 94 4.9999990061084454E-1
64 95 9.999999728742466E-1
64 103 9.999999897867353E-1
64 108 4.9999996799521984E-1
64 112 4.999999792431843E-1
64 121 4.999999623048987E-1
65 6 4.9999997461270834E-1
65 23 4.999999814611235E-1
65 25 4.9999997517241623E-1
65 35 9.999999761619895E-1
65 38 9.999999827479494E-1
65 40 9.999999683727275E-1
65 41 4.999999728262904E-1
65 62 9.999999697773255E-1
65 64 4.9999996618550546E-1
65 68 4.9999998581456573E-1
65 80 9.999999969702599E-1
65 103 4.9999995188409524E-1
65 108 9.999999819290769E-1
65 112 9.999999967468249E-1
65 119 9.99999980266819E-1
65 121 9.999999993714038E-1
66 2 9.999999695665325E-1
66 12 9.999999104944995E-1
66 17 4.999999329254703E-1
66 29 4.9999993391723435E-1
66 73 9.99999971539187E-1
66 75 9.999999905517564E-1
66 90 4.999999426842195E-1
66 105 9.999999954666186E-1
66 106 4.9999991539623695E-1
66 110 9.999999991846559E-1
66 128 9.999999737934696E-1
67 33 4.999997904482919E-1
67 45 4.999999535851295E-1
67 47 9.999999483004084E-1
67 53 4.999999267256052E-1
67 63 4.9999995411303677E-1
67 69 4.9999993917416086E-1
67 76 4.999999389231631E-1
67 87 4.9999997056541257E-1
67 97 4.999999406995425E-1
67 104 4.999999437507204E-1
67 107 4.999999254369792E-1
67 111 9.999999597353538E-1
68 4 9.999999887886889E-1
68 23 9.999999821433982E-1
68 30 4.9999998939359025E-1
68 37 9.999999937165882E-1
68 40 4.999999862936055E-1
68 54 9.999999850941721E-1
68 65 4.9999998581456573E-1
68 77 4.9999999082206587E-1
68 84 9.999999968675081E-1
68 85 4.999999803293604E-1
68 89 9.999999827144374E-1
68 112 4.999999834658315E-1
68 117 9.99999984165315E-1
68 121 4.999999825446887E-1
68 122 4.999999920612437E-1
68 127 9.999999959423039E-1
69 20 4.999999797855952E-1
69 28 9.999999976050556E-1
69 45 9.999999895870921E-1
69 47 9.999999817171983E-1
69 48 9.999999872852211E-1
69 53 9.999999937376376E-1
69 63 9.999999708959548E-1
69 67 4.9999993917416086E-1
69 74 4.999999851669227E-1
69 76 9.999999985837922E-1
69 83 4.999999866784506E-1
69 87 9.999999842476409E-1
69 97 4.9999995950297005E-1
69 104 9.999999709917621E-1
69 107 4.9999996632270066E-1
69 111 4.999999787053688E-1
70 2 4.9999990422350593E-1
70 7 4.999999122205489E-1
70 12 9.999998761208712E-1
70 36 9.999999971461415E-1
70 39 9.999998315008162E-1
70 79 4.999999235839817E-1
70 86 4.999998515652821E-1
70 88 9.999998416924987E-1
70 92 9.999999754047317E-1
70 99 9.999999826619983E-1
70 100 9.999999322761752E-1
70 106 9.99999925097094E-1
70 115 4.999999118111412E-1
71 8 9.999999903714785E-1
71 14 9.999999818003901E-1
71 18 4.9999999135118095E-1
71 22 4.999999867090531E-1
71 42 9.999999944970303E-1
71 57 9.99999976010432E-1
71 60 9.999999973605534E-1
71 93 9.999999969654768E-1
71 102 9.999999965473163E-1
71 124 9.999999824386046E-1
71 125 9.999999832095681E-1
71 126 9.999999983258572E-1
72 3 4.999999792038644E-1
72 9 4.999999257109438E-1
72 14 9.99999996396648E-1
72 16 9.999999964025461E-1
72 18 4.9999998685478586E-1
72 20 4.999999781982221E-1
72 22 9.99999984050153E-1
72 28 9.999999778872014E-1
72 48 9.999999882512297E-1
72 53 4.9999998489700953E-1
72 59 4.9999990148516665E-1
72 61 9.999999961915593E-1
72 74 9.999999994015261E-1
72 83 9.999999975450506E-1
72 93 4.9999999017365704E-1
72 124 9.999999954855184E-1
73 2 9.999999038675841E-1
73 17 9.999999609630948E-1
73 29 9.999999617874253E-1
73 66 9.99999971539187E-1
73 75 9.999999938258228E-1
73 82 4.999999582624667E-1
73 90 9.999999711146663E-1
73 105 9.999999585107161E-1
73 109 4.999999431800357E-1
73 110 9.999999611466031E-1
73 128 9.999999999086215E-1
74 3 4.9999997657747836E-1
74 14 9.999999931978119E-1
74 16 9.999999954538292E-1
74 20 4.9999998008754626E-1
74 22 9.999999780188569E-1
74 28 9.999999845605687E-1
74 48 9.999999925489685E-1
74 53 9.999999772641817E-1
74 59 4.9999989674542145E-1
74 61 9.999999931150977E-1
74 69 4.999999851669227E-1
74 72 9.999999994015261E-1
74 76 4.9999998527336E-1
74 83 9.999999988869772E-1
74 93 4.999999867831188E-1
74 124 9.999999925828967E-1
75 2 9.999999459861809E-1
75 12 9.999998832044942E-1
75 17 4.999999625540658E-1
75 29 4.9999996388508333E-1
75 66 9.999999905517564E-1
75 73 9.999999938258228E-1
75 82 4.999999448402608E-1
75 90 4.9999996998572416E-1
75 105 9.999999843461106E-1
75 110 9.999999845492912E-1
75 128 9.999999944504353E-1
76 28 9.999999972550597E-1
76 44 4.9999993829658324E-1
76 45 9.999999947227569E-1
76 47 9.999999770381452E-1
76 48 9.999999905110402E-1
76 53 9.999999978544936E-1
76 63 9.999999808467563E-1
76 67 4.999999389231631E-1
76 69 9.999999985837922E-1
76 74 4.9999998527336E-1
76 83 9.99999975780378E-1
76 87 9.99999987299267E-1
76 97 4.999999686498117E-1
76 104 9.999999818513258E-1
76 107 4.9999995616853055E-1
76 111 4.999999821752499E-1
77 1 9.999999932832042E-1
77 17 4.999999793688039E-1
77 30 9.999999990204202E-1
77 32 4.999999936721879E-1
77 37 9.999999968161067E-1
77 52 9.99999998381213E-1
77 54 9.999999987377701E-1
77 58 9.99999997686195E-1
77 68 4.9999999082206587E-1
77 81 4.9999999488985136E-1
77 84 9.999999936507404E-1
77 109 9.999999912127624E-1
77 120 9.999999998065704E-1
77 122 9.999999923410174E-1
77 127 9.999999924470051E-1
78 1 4.9999996538278424E-1
78 5 9.999999719272428E-1
78 7 9.99999978646154E-1
78 10 9.999999859303168E-1
78 13 4.9999996483693826E-1
78 32 4.9999997391567996E-1
78 50 9.999999557220975E-1
78 55 9.999999874988067E-1
78 81 4.999999678298106E-1
78 82 4.999999754336098E-1
78 86 4.999998713654689E-1
78 91 4.999999515628061E-1
78 96 9.999999993189657E-1
78 106 4.99999949654867E-1
78 113 9.999999946589103E-1
79 15 9.999999923640295E-1
79 20 4.999999701075232E-1
79 34 9.999999415206665E-1
79 36 4.9999993582717217E-1
79 39 4.999999174388598E-1
79 46 9.999999792824454E-1
79 57 4.9999995275701614E-1
79 70 4.999999235839817E-1
79 88 4.9999986975570043E-1
79 92 9.99999941828462E-1
79 99 9.999999023718867E-1
79 100 9.999999827775048E-1
79 107 9.999999505926623E-1
79 114 9.999999534379772E-1
79 115 9.999999990374857E-1
80 6 9.9999997088896E-1
80 21 4.999999686485657E-1
80 25 9.999999717141762E-1
80 35 9.999999901289696E-1
80 38 9.999999939510532E-1
80 41 9.999999682708102E-1
80 62 9.999999857635157E-1
80 65 9.999999969702599E-1
80 103 4.9999995104962613E-1
80 108 9.999999912313472E-1
80 112 9.999999912034778E-1
80 119 9.999999926879286E-1
80 121 9.999999989714511E-1
81 1 9.999999995528489E-1
81 7 4.9999996651421363E-1
81 10 9.99999981505327E-1
81 17 4.999999840347403E-1
81 29 4.99999986213494E-1
81 30 9.999999942566383E-1
81 32 9.999999927107169E-1
81 52 9.999999949808995E-1
81 54 4.9999999077238755E-1
81 55 4.9999998865599776E-1
81 58 9.999999940417746E-1
81 77 4.9999999488985136E-1
81 78 4.999999678298106E-1
81 82 4.9999998684823044E-1
81 90 4.9999998101698023E-1
81 96 4.9999997316395056E-1
81 109 9.999999994395471E-1
81 113 4.9999996948291375E-1
81 120 9.999999909652443E-1
81 122 4.999999942990583E-1
82 1 4.9999998321274625E-1
82 7 9.999999817942232E-1
82 10 9.999999743041718E-1
82 17 4.99999978510799E-1
82 29 9.999999674149225E-1
82 55 9.999999843651624E-1
82 73 4.999999582624667E-1
82 75 4.999999448402608E-1
82 78 4.999999754336098E-1
82 81 4.9999998684823044E-1
82 90 9.999999604803991E-1
82 96 9.999999541112886E-1
82 106 4.999999759659445E-1
82 109 4.9999998603743423E-1
82 113 9.999999712867599E-1
82 128 4.999999554557323E-1
83 3 4.999999795617314E-1
83 9 4.9999993374363194E-1
83 14 9.999999880685623E-1
83 16 9.999999898424458E-1
83 22 9.999999763620714E-1
83 28 9.999999869333546E-1
83 48 9.999999962076261E-1
83 53 9.99999983678627E-1
83 59 4.999999050899846E-1
83 61 9.999999918140999E-1
83 69 4.999999866784506E-1
83 72 9.999999975450506E-1
83 74 9.999999988869772E-1
83 76 9.99999975780378E-1
83 124 9.999999864484983E-1
84 4 9.999999859274278E-1
84 23 4.9999998730238415E-1
84 30 4.999999958851172E-1
84 37 9.999999994071647E-1
84 52 4.999999929362458E-1
84 54 9.999999949522457E-1
84 68 9.999999968675081E-1
84 77 9.999999936507404E-1
84 89 4.9999999013971586E-1
84 117 9.99999987245287E-1
84 120 9.999999912851532E-1
84 122 9.999999924729643E-1
84 127 9.99999999152708E-1
85 4 9.999999895549452E-1
85 5 9.999999779059378E-1
85 13 4.999999689164891E-1
85 23 9.999999958006796E-1
85 40 9.999999966576245E-1
85 43 4.9999977522073735E-1
85 64 9.999999611694597E-1
85 68 4.999999803293604E-1
85 89 9.999999927794573E-1
85 91 4.999999276725907E-1
85 95 4.9999996265468283E-1
85 103 4.9999995582883194E-1
85 112 4.9999998116572913E-1
85 117 9.999999818395685E-1
85 122 4.9999998074640656E-1
85 127 4.9999998075776686E-1
86 7 4.9999985762657756E-1
86 13 4.9999986291651205E-1
86 39 4.9999987215133934E-1
86 50 9.999999096871458E-1
86 70 4.999998515652821E-1
86 78 4.999998713654689E-1
86 88 9.999998655401745E-1
86 91 9.999998331369334E-1
86 96 4.999998584891587E-1
86 106 4.9999983534891435E-1
86 113 4.999998679015174E-1
87 28 9.999999731744575E-1
87 44 4.9999995309175377E-1
87 45 9.999999959457282E-1
87 47 9.999999891440953E-1
87 48 4.9999997898882814E-1
87 53 9.999999802347802E-1
87 63 9.999999906214971E-1
87 67 4.9999997056541257E-1
87 69 9.999999842476409E-1
87 76 9.99999987299267E-1
87 97 9.999999589882932E-1
87 104 9.999999854525771E-1
87 107 4.999999508394695E-1
87 111 9.999999933140857E-1
88 36 4.99999905829766E-1
88 39 9.999999806184297E-1
88 70 9.999998416924987E-1
88 79 4.9999986975570043E-1
88 86 9.999998655401745E-1
88 92 9.999998655058406E-1
88 99 4.999998815081678E-1
88 100 4.999999076226926E-1
88 107 4.9999986396441315E-1
88 114 9.999998684821222E-1
88 115 4.9999986429999094E-1
89 4 9.999999993367232E-1
89 5 4.999999866145959E-1
89 13 4.999999533739448E-1
89 23 9.999999979080686E-1
89 32 4.9999999135041273E-1
89 37 4.999999876033225E-1
89 40 9.999999914856523E-1
89 64 4.9999996282192133E-1
89 68 9.999999827144374E-1
89 84 4.9999999013971586E-1
89 85 9.999999927794573E-1
89 95 4.999999358886593E-1
89 117 9.999999972343907E-1
89 122 4.9999999366703696E-1
89 127 4.999999935030561E-1
90 1 4.9999997880441366E-1
90 17 9.999999990956836E-1
90 29 9.999999991701777E-1
90 52 4.999999812948375E-1
90 58 4.9999998341482E-1
90 66 4.999999426842195E-1
90 73 9.999999711146663E-1
90 75 4.9999996998572416E-1
90 81 4.9999998101698023E-1
90 82 9.999999604803991E-1
90 105 4.999999323772392E-1
90 109 4.999999846908481E-1
90 110 4.9999993269267146E-1
90 120 4.9999997680393976E-1
90 128 9.99999968561361E-1
91 5 4.9999996198361363E-1
91 10 4.9999991919863057E-1
91 13 9.999999825028425E-1
91 43 4.999998685110563E-1
91 50 9.999999205413259E-1
91 55 4.9999991353353246E-1
91 78 4.999999515628061E-1
91 85 4.999999276725907E-1
91 86 9.999998331369334E-1
91 95 9.99999900572617E-1
91 96 4.999999487592054E-1
91 113 4.999999302944361E-1
92 12 4.999999223393064E-1
92 15 4.9999995280751547E-1
92 36 9.99999980270572E-1
92 39 9.999998940180668E-1
92 46 4.999999260495618E-1
92 70 9.999999754047317E-1
92 79 9.99999941828462E-1
92 88 9.999998655058406E-1
92 99 9.999999795509986E-1
92 100 9.999999877168061E-1
92 114 9.9999991558934E-1
92 115 9.999999279201233E-1
93 3 4.999999704468333E-1
93 8 4.999999917534379E-1
93 14 9.999999935636671E-1
93 16 9.99999985789015E-1
93 18 9.999999867032163E-1
93 22 9.999999851544407E-1
93 42 9.999999889076749E-1
93 57 4.999999844721273E-1
93 59 4.999998900053608E-1
93 60 9.99999992288912E-1
93 61 9.999999850572423E-1
93 71 9.999999969654768E-1
93 72 4.9999999017365704E-1
93 74 4.999999867831188E-1
93 102 9.99999996831597E-1
93 124 9.999999935529791E-1
93 125 4.9999998799920103E-1
93 126 9.99999993118943E-1
94 11 9.999998905044242E-1
94 13 4.999998042067187E-1
94 21 4.999998620575167E-1
94 31 9.99999900544156E-1
94 40 4.999998009254551E-1
94 43 9.999998841449338E-1
94 64 4.9999990061084454E-1
94 95 4.99999917915246E-1
94 103 4.9999993583280744E-1
94 108 4.999998363338324E-1
94 112 4.999998110591378E-1
95 4 4.999999297355782E-1
95 5 4.999999506018531E-1
95 13 9.999999482369101E-1
95 23 4.9999994488217014E-1
95 40 4.999999565237183E-1
95 43 4.999999203427965E-1
95 64 9.999999728742466E-1
95 85 4.9999996265468283E-1
95 89 4.999999358886593E-1
95 91 9.99999900572617E-1
95 94 4.99999917915246E-1
95 103 9.999999617152401E-1
95 112 4.99999935113177E-1
96 5 9.999999773624423E-1
96 7 9.999999758167248E-1
96 10 9.999999908292752E-1
96 13 4.999999653725478E-1
96 32 4.999999794164793E-1
96 50 9.999999442404208E-1
96 55 9.999999907001456E-1
96 78 9.999999993189657E-1
96 81 4.9999997316395056E-1
96 82 9.999999541112886E-1
96 86 4.999998584891587E-1
96 91 4.999999487592054E-1
96 106 4.9999994596787856E-1
96 113 9.999999928307335E-1
96 117 4.999999718739611E-1
97 9 4.999999281070763E-1
97 19 4.999997536598142E-1
97 26 4.9999994246526214E-1
97 33 4.999997977812353E-1
97 44 9.999999890808371E-1
97 45 9.999999660517426E-1
97 48 4.9999995877809905E-1
97 49 9.999999411688365E-1
97 51 4.9999984212424964E-1
97 53 4.999999723592545E-1
97 63 9.999999866833669E-1
97 67 4.999999406995425E-1
97 69 4.9999995950297005E-1
97 76 4.999999686498117E-1
97 87 9.999999589882932E-1
97 101 4.999998873629638E-1
97 104 9.99999986353473E-1
97 111 9.999999733329166E-1
97 116 4.999999161745942E-1
98 9 4.999996616041735E-1
98 19 9.999998454848733E-1
98 26 4.999998344696921E-1
98 33 4.99999661762473E-1
98 44 4.999996820635623E-1
98 49 4.999997833918912E-1
98 51 9.999997973662716E-1
98 56 9.999999419238003E-1
98 101 9.999998185032156E-1
98 116 9.999997534098465E-1
98 123 9.999999087974416E-1
99 2 9.999998671267738E-1
99 12 9.999999348009407E-1
99 15 4.999999395748814E-1
99 34 4.999999247423208E-1
99 36 9.999999938437889E-1
99 39 4.999998921133498E-1
99 70 9.999999826619983E-1
99 79 9.999999023718867E-1
99 88 4.999998815081678E-1
99 92 9.999999795509986E-1
99 100 9.99999961389645E-1
99 106 9.999998830347772E-1
99 115 4.999999410346992E-1
100 15 9.999999609566963E-1
100 34 4.999999515558853E-1
100 36 9.999999468294382E-1
100 39 4.999999373082081E-1
100 46 4.999999621501433E-1
100 70 9.999999322761752E-1
100 79 9.999999827775048E-1
100 88 4.999999076226926E-1
100 92 9.999999877168061E-1
100 99 9.99999961389645E-1
100 107 4.999999493491277E-1
100 114 9.999999429003155E-1
100 115 9.999999744733203E-1
101 9 4.999998826618776E-1
101 19 9.999998970049967E-1
101 26 9.999999753700332E-1
101 33 4.999998363312315E-1
101 44 4.9999993099011314E-1
101 49 9.999999460335596E-1
101 51 9.999999532066954E-1
101 56 9.999999242662697E-1
101 97 4.999998873629638E-1
101 98 9.999998185032156E-1
101 116 9.999999941244204E-1
101 123 9.999999145506415E-1
102 8 9.999999940830685E-1
102 14 9.999999877132846E-1
102 16 4.999999920468887E-1
102 18 9.999999946982719E-1
102 22 4.999999843408149E-1
102 27 4.999999742221394E-1
102 42 9.999999967571869E-1
102 57 9.99999985538749E-1
102 60 9.999999976303657E-1
102 61 4.999999860900703E-1
102 71 9.999999965473163E-1
102 93 9.99999996831597E-1
102 118 4.999999478372948E-1
102 124 9.999999900214893E-1
102 125 9.99999989975403E-1
102 126 9.999999973026931E-1
103 11 9.999999288632189E-1
103 21 4.999999530603556E-1
103 31 9.999999233282505E-1
103 40 4.9999996099356764E-1
103 43 4.999998716982036E-1
103 64 9.999999897867353E-1
103 65 4.9999995188409524E-1
103 80 4.9999995104962613E-1
103 85 4.9999995582883194E-1
103 94 4.9999993583280744E-1
103 95 9.999999617152401E-1
103 108 4.999999672672359E-1
103 112 4.999999661762199E-1
104 9 4.999999290411337E-1
104 26 4.999998985636022E-1
104 28 9.999999686219784E-1
104 44 9.999999530942958E-1
104 45 9.99999994198862E-1
104 47 4.9999997556670667E-1
104 48 4.9999998456709516E-1
104 49 4.9999993929010533E-1
104 53 9.999999858360122E-1
104 63 9.999999989369808E-1
104 67 4.999999437507204E-1
104 69 9.999999709917621E-1
104 76 9.999999818513258E-1
104 87 9.999999854525771E-1
104 97 9.99999986353473E-1
104 111 9.999999816854358E-1
105 2 9.99999987463875E-1
105 12 9.999999455704747E-1
105 17 4.9999992119733405E-1
105 29 4.999999239616624E-1
105 66 9.999999954666186E-1
105 73 9.999999585107161E-1
105 75 9.999999843461106E-1
105 90 4.999999323772392E-1
105 106 4.999999297514927E-1
105 110 9.999999964684476E-1
105 128 9.999999602956474E-1
106 2 4.9999992424490575E-1
106 7 9.999999699065921E-1
106 10 4.9999994382364993E-1
106 12 4.99999925278562E-1
106 36 9.999999141097263E-1
106 50 9.999998859566382E-1
106 55 4.9999995809455344E-1
106 66 4.9999991539623695E-1
106 70 9.99999925097094E-1
106 78 4.99999949654867E-1
106 82 4.999999759659445E-1
106 86 4.9999983534891435E-1
106 96 4.9999994596787856E-1
106 99 9.999998830347772E-1
106 105 4.999999297514927E-1
106 110 4.999999100400876E-1
106 113 9.999999400663658E-1
107 15 4.999999663420898E-1
107 20 9.999999622471032E-1
107 28 4.9999995848006207E-1
107 39 4.999999254813194E-1
107 46 9.999999695179146E-1
107 47 9.999999530192879E-1
107 67 4.999999254369792E-1
107 69 4.9999996632270066E-1
107 76 4.9999995616853055E-1
107 79 9.999999505926623E-1
107 87 4.999999508394695E-1
107 88 4.9999986396441315E-1
107 100 4.999999493491277E-1
107 114 9.999999739114469E-1
107 115 9.999999618183778E-1
108 6 9.999999782210655E-1
108 11 4.9999994954211485E-1
108 21 4.9999998637047816E-1
108 25 9.999999785002591E-1
108 31 4.999999425749831E-1
108 35 9.999999926033155E-1
108 38 9.999999902003572E-1
108 41 9.99999980998803E-1
108 62 9.999999874919419E-1
108 64 4.9999996799521984E-1
108 65 9.999999819290769E-1
108 80 9.999999912313472E-1
108 94 4.999998363338324E-1
108 103 4.999999672672359E-1
108 112 9.999999813283108E-1
108 119 9.999999945125221E-1
108 121 9.999999855212506E-1
109 1 9.99999999029656E-1
109 7 4.99999962761673E-1
109 10 4.99999987405614E-1
109 17 4.9999998764265335E-1
109 29 4.9999998929478995E-1
109 30 9.99999994475174E-1
109 32 9.999999890967745E-1
109 37 4.9999998942112817E-1
109 52 9.999999966929466E-1
109 54 4.9999999201278156E-1
109 55 4.999999854588526E-1
109 58 9.999999963590985E-1
109 73 4.999999431800357E-1
109 77 9.999999912127624E-1
109 81 9.999999994395471E-1
109 82 4.9999998603743423E-1
109 90 4.999999846908481E-1
109 120 9.999999927855729E-1
109 122 4.999999929468626E-1
109 128 4.999999402976998E-1
110 2 9.999999758557412E-1
110 12 9.999999203679528E-1
110 17 4.999999221100806E-1
110 29 4.9999992328321335E-1
110 66 9.999999991846559E-1
110 73 9.999999611466031E-1
110 75 9.999999845492912E-1
110 90 4.9999993269267146E-1
110 105 9.999999964684476E-1
110 106 4.999999100400876E-1
110 128 9.999999637547998E-1
111 28 4.9999997093159915E-1
111 33 4.9999977129235534E-1
111 44 4.9999996658041307E-1
111 45 9.999999848523553E-1
111 47 9.999999740635356E-1
111 49 4.999999212133364E-1
111 53 4.999999786400798E-1
111 63 9.999999894460113E-1
111 67 9.999999597353538E-1
111 69 4.999999787053688E-1
111 76 4.999999821752499E-1
111 87 9.999999933140857E-1
111 97 9.999999733329166E-1
111 104 9.999999816854358E-1
112 4 4.9999998170236326E-1
112 23 9.999999733406973E-1
112 35 4.999999829013894E-1
112 38 9.99999971169183E-1
112 40 9.999999812655767E-1
112 64 4.999999792431843E-1
112 65 9.999999967468249E-1
112 68 4.999999834658315E-1
112 80 9.999999912034778E-1
112 85 4.9999998116572913E-1
112 94 4.999998110591378E-1
112 95 4.99999935113177E-1
112 103 4.999999661762199E-1
112 108 9.999999813283108E-1
112 119 9.999999712173863E-1
112 121 9.999999942316535E-1
113 5 4.999999723708409E-1
113 7 9.999999946599293E-1
113 10 9.999999830520324E-1
113 32 4.999999694943352E-1
113 50 9.999999541590059E-1
113 55 9.999999905243416E-1
113 78 9.999999946589103E-1
113 81 4.9999996948291375E-1
113 82 9.999999712867599E-1
113 86 4.999998679015174E-1
113 91 4.999999302944361E-1
113 96 9.999999928307335E-1
113 106 9.999999400663658E-1
114 15 4.9999995681088916E-1
114 20 4.999999448450667E-1
114 36 4.999999072683446E-1
114 39 9.999999465965524E-1
114 46 4.9999996367566013E-1
114 47 4.9999993635315143E-1
114 79 9.999999534379772E-1
114 88 9.999998684821222E-1
114 92 9.9999991558934E-1
114 100 9.999999429003155E-1
114 107 9.999999739114469E-1
114 115 9.999999568019049E-1
115 15 9.999999925818148E-1
115 18 4.999999525144397E-1
115 20 4.9999997670796376E-1
115 34 9.99999938955384E-1
115 36 4.9999992460690773E-1
115 39 4.9999991549770767E-1
115 46 9.999999864907942E-1
115 57 4.999999562760702E-1
115 70 4.999999118111412E-1
115 79 9.999999990374857E-1
115 88 4.9999986429999094E-1
115 92 9.999999279201233E-1
115 99 4.999999410346992E-1
115 100 9.999999744733203E-1
115 107 9.999999618183778E-1
115 114 9.999999568019049E-1
116 9 4.9999988883723695E-1
116 19 9.999998881827845E-1
116 26 9.999999934935642E-1
116 33 4.9999986443692906E-1
116 44 9.999999068857663E-1
116 49 9.999999717719565E-1
116 51 9.999999569967528E-1
116 56 9.999998765083421E-1
116 97 4.999999161745942E-1
116 98 9.999997534098465E-1
116 101 9.999999941244204E-1
116 123 9.999998666109642E-1
117 4 9.999999971327667E-1
117 5 4.9999998500906945E-1
117 23 9.999999907832267E-1
117 30 4.999999919552799E-1
117 32 9.999999936100937E-1
117 37 9.999999847333676E-1
117 40 4.9999998965041004E-1
117 68 9.99999984165315E-1
117 84 9.99999987245287E-1
117 85 9.999999818395685E-1
117 89 9.999999972343907E-1
117 96 4.999999718739611E-1
117 122 9.999999962018515E-1
117 127 9.999999929701954E-1
118 8 4.999999697174491E-1
118 15 4.9999995524085555E-1
118 24 9.99999996263125E-1
118 27 9.999999891251686E-1
118 34 9.999999810107301E-1
118 42 4.999999642961834E-1
118 57 4.9999997576779326E-1
118 60 4.999999596684423E-1
118 102 4.999999478372948E-1
118 125 4.999999739056908E-1
118 126 4.999999578249402E-1
119 6 9.999999922051156E-1
119 11 4.9999993286523803E-1
119 21 4.999999837003303E-1
119 25 9.999999925553037E-1
119 31 4.9999992467416443E-1
119 35 9.999999997619129E-1
119 38 9.999999990348581E-1
119 41 9.999999914144767E-1
119 62 9.999999983021158E-1
119 65 9.99999980266819E-1
119 80 9.999999926879286E-1
119 108 9.999999945125221E-1
119 112 9.999999712173863E-1
119 121 9.99999986254536E-1
120 1 9.999999940062265E-1
120 17 4.9999998209684254E-1
120 29 4.999999818919232E-1
120 30 9.99999998810821E-1
120 32 4.999999931081348E-1
120 37 9.999999951268944E-1
120 52 9.999999991795641E-1
120 54 9.99999998281019E-1
120 58 9.999999987955367E-1
120 77 9.999999998065704E-1
120 81 9.999999909652443E-1
120 84 9.999999912851532E-1
120 90 4.9999997680393976E-1
120 109 9.999999927855729E-1
120 122 9.999999906102924E-1
120 127 4.999999949299549E-1
121 6 9.99999959640165E-1
121 25 9.999999606566343E-1
121 35 9.999999829179648E-1
121 38 9.9999998864899E-1
121 41 4.9999997801509094E-1
121 62 9.999999777001348E-1
121 64 4.999999623048987E-1
121 65 9.999999993714038E-1
121 68 4.999999825446887E-1
121 80 9.999999989714511E-1
121 108 9.999999855212506E-1
121 112 9.999999942316535E-1
121 119 9.99999986254536E-1
122 1 9.999999921666353E-1
122 4 9.9999998889954E-1
122 10 4.9999998691532754E-1
122 23 4.9999998843894145E-1
122 30 9.999999956725545E-1
122 32 9.999999979700159E-1
122 37 9.999999927812226E-1
122 40 4.999999799666452E-1
122 52 9.999999893109426E-1
122 54 4.999999937389355E-1
122 55 4.9999998015571134E-1
122 58 4.9999999316917143E-1
122 68 4.999999920612437E-1
122 77 9.999999923410174E-1
122 81 4.999999942990583E-1
122 84 9.999999924729643E-1
122 85 4.9999998074640656E-1
122 89 4.9999999366703696E-1
122 109 4.999999929468626E-1
122 117 9.999999962018515E-1
122 120 9.999999906102924E-1
122 127 9.999999959491339E-1
123 9 4.9999985466060254E-1
123 19 9.999997575107558E-1
123 26 9.999998062554708E-1
123 44 4.999998143371707E-1
123 49 4.9999988449336746E-1
123 51 9.999997914361511E-1
123 56 9.999999954165414E-1
123 59 4.9999984263452907E-1
123 98 9.999999087974416E-1
123 101 9.999999145506415E-1
123 116 9.999998666109642E-1
124 3 4.9999997278105246E-1
124 8 4.9999998494003856E-1
124 14 9.99999999562603E-1
124 16 9.999999982700535E-1
124 18 9.999999890597366E-1
124 20 4.999999807702813E-1
124 22 9.999999842268468E-1
124 42 4.9999998779317095E-1
124 59 4.999998883633498E-1
124 60 4.999999890918755E-1
124 61 9.999999930674563E-1
124 71 9.999999824386046E-1
124 72 9.999999954855184E-1
124 74 9.999999925828967E-1
124 83 9.999999864484983E-1
124 93 9.999999935529791E-1
124 102 9.999999900214893E-1
124 126 4.9999998902192155E-1
125 8 9.999999989566152E-1
125 15 4.99999968993149E-1
125 18 9.999999895636393E-1
125 24 4.9999997596775647E-1
125 27 9.999999835106974E-1
125 34 9.999999670227683E-1
125 42 9.999999969270472E-1
125 46 4.999999707431845E-1
125 57 9.999999992911145E-1
125 60 9.99999993850605E-1
125 71 9.999999832095681E-1
125 93 4.9999998799920103E-1
125 102 9.99999989975403E-1
125 118 4.999999739056908E-1
125 126 9.999999919150834E-1
126 8 9.999999966478272E-1
126 14 4.999999878672227E-1
126 18 9.999999867542166E-1
126 24 4.9999995651998125E-1
126 27 4.999999794435095E-1
126 42 9.999999987899125E-1
126 57 9.999999865708111E-1
126 60 9.999999998525375E-1
126 71 9.999999983258572E-1
126 93 9.99999993118943E-1
126 102 9.999999973026931E-1
126 118 4.999999578249402E-1
126 124 4.9999998902192155E-1
126 125 9.999999919150834E-1
127 4 9.999999911663925E-1
127 23 4.9999999052843797E-1
127 30 4.9999999616400914E-1
127 32 9.999999881839583E-1
127 37 9.99999998102724E-1
127 40 4.9999998354997827E-1
127 54 9.999999919818013E-1
127 68 9.999999959423039E-1
127 77 9.999999924470051E-1
127 84 9.99999999152708E-1
127 85 4.9999998075776686E-1
127 89 4.999999935030561E-1
127 117 9.999999929701954E-1
127 120 4.999999949299549E-1
127 122 9.999999959491339E-1
128 2 9.999999058835547E-1
128 17 9.999999581756065E-1
128 29 9.999999586934017E-1
128 66 9.999999737934696E-1
128 73 9.999999999086215E-1
128 75 9.999999944504353E-1
128 82 4.999999554557323E-1
128 90 9.99999968561361E-1
128 105 9.999999602956474E-1
128 109 4.999999402976998E-1
128 110 9.999999637547998E-1
