%%MatrixMarket matrix coordinate real general
%
121 121 2328
1 5 4.9999996654647155E-1
1 6 4.9999996371101435E-1
1 9 9.999999802178877E-1
1 16 4.999999833871581E-1
1 29 9.999999702390566E-1
1 30 9.999999971236557E-1
1 37 9.999999848429779E-1
1 52 9.999999969814012E-1
1 54 9.999999869896143E-1
1 55 9.99999974446592E-1
1 57 9.999999959301569E-1
1 72 4.9999993583319646E-1
1 75 9.999999936408962E-1
1 78 9.999999995766612E-1
1 79 9.999999682134477E-1
1 81 9.999999805065023E-1
1 85 4.999999813543795E-1
1 86 4.999999799331498E-1
1 91 4.9999997270680524E-1
1 106 9.999999990813301E-1
1 109 4.9999996763803967E-1
1 115 9.999999943254151E-1
1 120 9.999999828483133E-1
1 121 4.999999328468017E-1
2 11 9.999999845851593E-1
2 23 4.999998902467626E-1
2 29 4.9999988808211454E-1
2 36 9.999998473472607E-1
2 65 4.9999990511378833E-1
2 69 9.999998186478509E-1
2 72 9.999999089869579E-1
2 74 9.99999948862598E-1
2 79 4.9999988675077267E-1
2 86 4.9999989694952607E-1
2 94 9.99999874202719E-1
2 101 9.999999881314657E-1
2 102 4.9999992827911866E-1
2 107 9.99999977141504E-1
2 121 9.999999108955713E-1
3 8 9.999999598499443E-1
3 21 9.999999860752602E-1
3 28 4.9999995563197264E-1
3 48 9.999999457009631E-1
3 53 4.999999605317992E-1
3 56 4.999997031814941E-1
3 58 9.999999451446118E-1
3 59 4.9999994897596356E-1
3 60 9.999999781843165E-1
3 70 4.9999996233858407E-1
3 71 9.99999960622657E-1
3 73 9.999999556496125E-1
3 80 9.999999613002757E-1
3 98 4.999999579628529E-1
3 100 4.9999994585443763E-1
3 116 4.9999973303852674E-1
3 117 4.9999997423055276E-1
3 119 4.9999995129751396E-1
4 5 9.999999661811848E-1
4 12 4.9999994825332633E-1
4 14 9.999999994689612E-1
4 22 9.999999978952014E-1
4 25 4.999999795417377E-1
4 30 9.999999743802099E-1
4 37 9.999999821146123E-1
4 40 9.999999914661826E-1
4 41 4.999999796249136E-1
4 54 9.999999682060733E-1
4 63 4.999999629812623E-1
4 64 4.9999997928835616E-1
4 67 9.999999893857289E-1
4 75 9.999999710202462E-1
4 81 9.999999866768395E-1
4 82 9.999999901111793E-1
4 85 9.99999999372045E-1
4 90 4.999999334773944E-1
4 91 4.9999996305552263E-1
4 108 9.999999653535477E-1
4 115 9.999999666074053E-1
4 120 9.999999916368117E-1
5 1 4.9999996654647155E-1
5 4 9.999999661811848E-1
5 6 4.9999995613948484E-1
5 9 9.999999721734608E-1
5 12 9.99999973938676E-1
5 14 4.999999792190464E-1
5 22 9.999999670160857E-1
5 40 9.999999604267255E-1
5 41 9.999999756974327E-1
5 44 4.9999978307260656E-1
5 50 4.999999471183927E-1
5 55 9.999999591637426E-1
5 63 4.9999995405472786E-1
5 78 4.999999655716277E-1
5 82 9.999999790825208E-1
5 83 4.9999983009776566E-1
5 85 9.999999746548272E-1
5 87 4.999999640081138E-1
5 90 4.999999532324702E-1
5 91 9.999999785679683E-1
5 104 4.999999458774793E-1
5 109 9.999999476843727E-1
5 120 4.999999687442853E-1
6 1 4.9999996371101435E-1
6 5 4.9999995613948484E-1
6 9 9.999999717711654E-1
6 29 4.999999529049943E-1
6 36 4.9999990424109775E-1
6 50 9.999999438629781E-1
6 52 4.9999994873792475E-1
6 55 9.999999843122498E-1
6 65 9.999999124238776E-1
6 69 4.999999168950991E-1
6 74 4.999999132913416E-1
6 78 4.999999682974442E-1
6 79 9.999999827637419E-1
6 83 4.999998652084394E-1
6 91 9.999999771045655E-1
6 102 9.999999715091672E-1
6 104 9.999999562916884E-1
6 106 4.9999996474473896E-1
6 109 9.99999994944306E-1
7 13 4.9999996287801884E-1
7 15 9.999999658996873E-1
7 17 9.999999902813689E-1
7 19 9.999999450998436E-1
7 21 4.9999997038660204E-1
7 23 9.999999439740634E-1
7 27 9.999999783886371E-1
7 34 9.999999575752587E-1
7 43 9.99999999443786E-1
7 47 4.999999665331931E-1
7 59 9.999999979306989E-1
7 60 4.999999718831889E-1
7 70 9.999999908842295E-1
7 71 4.9999997266163176E-1
7 98 9.999999943981649E-1
7 113 4.999999713300966E-1
7 117 9.999999714840642E-1
7 118 9.999999990121788E-1
7 119 9.999999968263417E-1
8 3 9.999999598499443E-1
8 18 4.999996955603142E-1
8 21 4.999999493877706E-1
8 26 4.999998998140182E-1
8 45 9.999998713033992E-1
8 48 4.999999341899848E-1
8 49 9.999998682649843E-1
8 51 4.9999978185536165E-1
8 53 4.9999992701044443E-1
8 56 4.9999983703696255E-1
8 58 9.999999837291048E-1
8 60 4.999999431293557E-1
8 62 4.999999212717005E-1
8 71 4.999999296670853E-1
8 73 4.9999992816811467E-1
8 80 4.9999993727200587E-1
8 92 9.999998638712313E-1
8 93 4.9999967962488195E-1
8 97 4.99999888910526E-1
8 100 4.999999328199314E-1
8 112 4.9999989475702683E-1
8 116 4.9999985928371377E-1
8 117 4.9999991254414133E-1
9 1 9.999999802178877E-1
9 5 9.999999721734608E-1
9 6 9.999999717711654E-1
9 12 4.9999995065129177E-1
9 30 4.999999836098728E-1
9 50 4.999999495785824E-1
9 52 4.999999809408664E-1
9 55 9.999999980231605E-1
9 57 4.99999979105875E-1
9 75 4.9999997764193016E-1
9 78 9.999999824902305E-1
9 79 9.999999756725609E-1
9 85 4.999999790034348E-1
9 87 4.999999235015746E-1
9 91 9.99999991317647E-1
9 102 4.999999468152291E-1
9 104 4.999999538182387E-1
9 106 9.999999761526147E-1
9 109 9.999999839545687E-1
9 115 4.9999997764073434E-1
10 20 9.999999583283001E-1
10 24 9.999998681668388E-1
10 31 9.999999995519493E-1
10 35 4.999999360799732E-1
10 42 9.999998901613038E-1
10 44 4.9999981378159736E-1
10 61 4.999999316101909E-1
10 63 4.99999939000686E-1
10 64 4.9999990710225906E-1
10 77 4.9999992008372923E-1
10 89 9.999998963354311E-1
10 96 9.99999899208289E-1
10 99 9.999999326514912E-1
10 105 4.999999522291666E-1
10 108 4.999999167040941E-1
10 114 4.9999993644038937E-1
11 2 9.999999845851593E-1
11 23 4.99999932844924E-1
11 34 4.9999992036116464E-1
11 36 9.999999105367308E-1
11 65 9.999998546252385E-1
11 69 9.999998827178505E-1
11 74 9.999998894242468E-1
11 88 9.999998529499976E-1
11 94 9.999999382730095E-1
11 95 4.999999210249364E-1
11 101 9.999999484690296E-1
11 102 4.9999992925772924E-1
11 107 9.999999246086266E-1
11 113 4.999999242356812E-1
11 121 4.9999991905235813E-1
12 4 4.9999994825332633E-1
12 5 9.99999973938676E-1
12 9 4.9999995065129177E-1
12 14 4.999999433826633E-1
12 22 4.9999995456743834E-1
12 40 4.999999563579463E-1
12 41 9.999999709845895E-1
12 44 4.999998675284395E-1
12 50 9.999998973477588E-1
12 63 4.9999995379032536E-1
12 82 4.9999997057179046E-1
12 83 4.9999987021666725E-1
12 85 4.9999995585693874E-1
12 87 9.999999834346249E-1
12 89 4.9999981463336657E-1
12 90 9.999999509934684E-1
12 91 9.999999344331517E-1
12 104 4.999999422813915E-1
12 109 4.99999946124021E-1
13 7 4.9999996287801884E-1
13 15 9.999999466612197E-1
13 17 4.999999684974054E-1
13 19 9.999999585448809E-1
13 23 9.999999443938514E-1
13 27 9.99999948744972E-1
13 34 9.999999753048475E-1
13 36 4.999999219394483E-1
13 38 4.9999988478258084E-1
13 47 9.999999872838063E-1
13 76 9.999999927706705E-1
13 88 4.9999995532067365E-1
13 94 4.9999994279272175E-1
13 95 9.999999630358832E-1
13 103 9.99999936268973E-1
13 110 9.999999182217085E-1
13 111 9.999999929768582E-1
13 113 9.999999152488604E-1
13 118 4.999999706443679E-1
14 4 9.999999994689612E-1
14 5 4.999999792190464E-1
14 12 4.999999433826633E-1
14 22 9.999999981444502E-1
14 25 9.999999678701953E-1
14 30 9.9999997149353E-1
14 35 4.999999452885173E-1
14 37 9.999999823322722E-1
14 40 9.999999928678164E-1
14 41 4.999999784779165E-1
14 54 9.999999680227666E-1
14 61 4.9999993895008255E-1
14 63 4.9999996511616557E-1
14 64 9.999999673879171E-1
14 67 9.999999920354299E-1
14 75 9.999999693097387E-1
14 77 4.999999725917621E-1
14 81 9.999999874250111E-1
14 82 9.999999890330955E-1
14 85 9.999999979660874E-1
14 90 4.999999329998739E-1
14 108 9.999999728462259E-1
14 114 4.999999497297391E-1
14 120 9.999999915095747E-1
15 7 9.999999658996873E-1
15 13 9.999999466612197E-1
15 17 4.999999679355169E-1
15 23 9.999999972258368E-1
15 27 9.999999985781272E-1
15 34 9.999999940610778E-1
15 43 9.999999570895188E-1
15 47 4.9999995679075054E-1
15 59 9.999999488321311E-1
15 70 4.999999626001327E-1
15 76 9.999999030242084E-1
15 98 4.999999665533095E-1
15 111 4.999999504704206E-1
15 113 9.999999950321622E-1
15 118 9.999999735969329E-1
15 119 9.999999450988768E-1
16 1 4.999999833871581E-1
16 29 9.999999992986229E-1
16 30 4.999999797935312E-1
16 37 4.999999686738802E-1
16 52 9.999999729972681E-1
16 54 4.999999781574119E-1
16 57 9.999999766872771E-1
16 72 9.999999630419412E-1
16 74 4.999999645481875E-1
16 75 4.9999998046748434E-1
16 78 4.9999998488494396E-1
16 79 9.999999593103422E-1
16 86 9.999999991438414E-1
16 101 4.9999992539384036E-1
16 106 9.999999766014471E-1
16 107 4.999999262579801E-1
16 115 9.999999661004916E-1
16 121 9.999999604028958E-1
17 7 9.999999902813689E-1
17 13 4.999999684974054E-1
17 15 4.999999679355169E-1
17 19 9.999999786778281E-1
17 21 9.999999544700666E-1
17 23 4.999999548762813E-1
17 27 4.999999763972867E-1
17 28 4.999999698915014E-1
17 34 4.9999996970131383E-1
17 43 9.999999909504489E-1
17 47 9.999999608331998E-1
17 48 4.999999706803835E-1
17 59 9.999999893243479E-1
17 60 9.999999667254992E-1
17 70 9.999999836235193E-1
17 71 9.999999751096252E-1
17 73 9.999999719447442E-1
17 76 4.9999994882697296E-1
17 80 9.999999600176553E-1
17 98 9.999999949806068E-1
17 103 4.999999442687478E-1
17 111 4.9999995504320516E-1
17 113 4.9999994948760657E-1
17 117 9.999999896423424E-1
17 118 9.999999901194107E-1
17 119 9.999999874595992E-1
18 8 4.999996955603142E-1
18 26 9.999998667314062E-1
18 32 4.9999966614228414E-1
18 33 9.999998229829891E-1
18 45 4.999998288627216E-1
18 49 9.999997790099174E-1
18 51 9.999999814117101E-1
18 56 9.999998206394554E-1
18 62 4.999996843218801E-1
18 92 4.9999976677825336E-1
18 93 9.999998537133221E-1
18 97 9.999999024898263E-1
18 100 4.9999968372425435E-1
18 112 9.999998941374265E-1
18 116 9.99999786812853E-1
19 7 9.999999450998436E-1
19 13 9.999999585448809E-1
19 17 9.999999786778281E-1
19 27 4.999999541144283E-1
19 28 9.999999646883941E-1
19 32 4.9999991347731676E-1
19 39 4.9999991899956353E-1
19 46 4.999999565160584E-1
19 47 9.999999903436821E-1
19 48 9.999999496673377E-1
19 53 4.999999692266219E-1
19 59 4.999999690652924E-1
19 66 4.9999988506996745E-1
19 68 9.999999617241602E-1
19 70 4.99999962993851E-1
19 71 9.9999995871848E-1
19 73 9.999999622959026E-1
19 76 4.999999716993979E-1
19 80 9.999999525012156E-1
19 95 4.9999993326640524E-1
19 98 9.99999953684265E-1
19 103 9.999999642575718E-1
19 110 4.99999947782252E-1
19 111 9.999999558966858E-1
19 117 9.999999635886568E-1
19 118 9.999999510427721E-1
20 10 9.999999583283001E-1
20 24 9.999999741044985E-1
20 25 4.999999533972944E-1
20 31 9.999999495289495E-1
20 35 9.999999706418918E-1
20 42 9.999999834406789E-1
20 61 9.999999688656506E-1
20 63 4.9999994090994343E-1
20 64 4.9999995794529833E-1
20 77 9.999999406362697E-1
20 89 4.9999986940341623E-1
20 96 9.999999816935964E-1
20 99 9.999999111200985E-1
20 105 9.99999974192592E-1
20 108 4.999999574341178E-1
20 114 9.999999691366848E-1
21 3 9.999999860752602E-1
21 7 4.9999997038660204E-1
21 8 4.999999493877706E-1
21 17 9.999999544700666E-1
21 28 9.999999321645517E-1
21 43 9.99999951358526E-1
21 48 9.999999574815052E-1
21 53 4.9999996394046536E-1
21 58 4.999999413377363E-1
21 59 9.999999592205571E-1
21 60 9.999999959596783E-1
21 70 9.999999748336813E-1
21 71 9.999999848995359E-1
21 73 9.999999791894266E-1
21 80 9.999999776208705E-1
21 98 9.999999703494381E-1
21 117 9.999999850668202E-1
21 119 9.999999619450505E-1
22 4 9.999999978952014E-1
22 5 9.999999670160857E-1
22 12 4.9999995456743834E-1
22 14 9.999999981444502E-1
22 25 9.999999632617699E-1
22 30 4.9999997880466646E-1
22 37 4.999999846196486E-1
22 40 9.999999978008962E-1
22 41 9.999999727531149E-1
22 44 4.99999747193771E-1
22 63 4.999999744108262E-1
22 64 9.999999648967618E-1
22 67 9.999999830943223E-1
22 77 4.999999713168822E-1
22 81 9.999999759571496E-1
22 82 9.999999960243074E-1
22 85 9.999999980194709E-1
22 90 4.9999994781737955E-1
22 99 4.9999994924147934E-1
22 105 4.999999576406036E-1
22 108 9.999999747603947E-1
22 120 9.999999820656609E-1
23 2 4.999998902467626E-1
23 7 9.999999439740634E-1
23 11 4.99999932844924E-1
23 13 9.999999443938514E-1
23 15 9.999999972258368E-1
23 17 4.999999548762813E-1
23 27 9.999999919305946E-1
23 34 9.999999933744199E-1
23 43 4.999999663535164E-1
23 47 4.9999995023990806E-1
23 59 4.9999996115822537E-1
23 76 9.999999042877581E-1
23 94 4.9999992111327035E-1
23 95 4.999999355554945E-1
23 98 4.9999995189699775E-1
23 111 9.99999899079189E-1
23 113 9.999999964621261E-1
23 118 9.999999544951083E-1
23 119 4.999999588354382E-1
24 10 9.999998681668388E-1
24 20 9.999999741044985E-1
24 25 4.999999759289699E-1
24 31 4.9999992628189877E-1
24 35 9.999999952380835E-1
24 40 4.999999270374671E-1
24 42 9.999999989517321E-1
24 61 9.999999977248216E-1
24 64 9.999999529891368E-1
24 67 4.999999335542574E-1
24 77 9.999999732204913E-1
24 96 9.999999933661133E-1
24 99 4.9999992676276206E-1
24 105 9.999999796451925E-1
24 108 4.9999996902154814E-1
24 114 9.999999929517588E-1
25 4 4.999999795417377E-1
25 14 9.999999678701953E-1
25 20 4.999999533972944E-1
25 22 9.999999632617699E-1
25 24 4.999999759289699E-1
25 35 9.99999975710239E-1
25 40 9.999999664194551E-1
25 42 4.999999729168785E-1
25 61 9.999999704462751E-1
25 63 4.9999996192429397E-1
25 64 9.999999993795351E-1
25 67 9.999999773833596E-1
25 77 9.999999961096581E-1
25 81 4.999999792304822E-1
25 82 4.999999715464708E-1
25 96 9.99999968856173E-1
25 105 9.999999778927638E-1
25 108 9.99999993961428E-1
25 114 9.999999793924266E-1
25 120 4.9999997773185373E-1
26 8 4.999998998140182E-1
26 18 9.999998667314062E-1
26 32 4.9999987416783737E-1
26 33 9.999997783162089E-1
26 45 9.999999477387638E-1
26 46 4.9999987070203283E-1
26 49 9.999999889666498E-1
26 51 9.999999467136091E-1
26 56 9.999998246979264E-1
26 62 4.9999990228091945E-1
26 92 9.9999989105836E-1
26 93 4.9999984328473557E-1
26 97 9.999999766816615E-1
26 100 4.9999990396543054E-1
26 112 9.999999938400538E-1
26 116 9.999998251307485E-1
27 7 9.999999783886371E-1
27 13 9.99999948744972E-1
27 15 9.999999985781272E-1
27 17 4.999999763972867E-1
27 19 4.999999541144283E-1
27 23 9.999999919305946E-1
27 34 9.999999924266703E-1
27 43 9.999999712351387E-1
27 47 9.999999240017104E-1
27 59 9.999999643071177E-1
27 70 9.999999439797983E-1
27 76 4.999999519745225E-1
27 98 9.99999951189794E-1
27 111 4.999999520703143E-1
27 113 9.999999897042899E-1
27 118 9.999999843888082E-1
27 119 9.999999610764232E-1
28 3 4.9999995563197264E-1
28 17 4.999999698915014E-1
28 19 9.999999646883941E-1
28 21 9.999999321645517E-1
28 32 4.9999995974761596E-1
28 39 4.9999993636442525E-1
28 45 4.9999992737952126E-1
28 46 9.999999854864831E-1
28 48 9.999999957220367E-1
28 53 9.999999963737081E-1
28 60 9.999999608831918E-1
28 62 9.999999671921256E-1
28 66 4.9999992598381054E-1
28 68 9.999999977325945E-1
28 71 9.999999790647821E-1
28 73 9.999999853827704E-1
28 80 9.999999876291973E-1
28 92 4.9999995909629724E-1
28 100 9.999999702929634E-1
28 103 9.999999213822762E-1
28 117 4.9999998098843146E-1
29 1 9.999999702390566E-1
29 2 4.9999988808211454E-1
29 6 4.999999529049943E-1
29 16 9.999999992986229E-1
29 30 4.999999804112558E-1
29 37 4.999999680648581E-1
29 52 9.999999735535283E-1
29 54 4.9999997708986693E-1
29 57 9.999999768395684E-1
29 72 9.999999638223732E-1
29 74 4.999999658083239E-1
29 75 4.999999802787002E-1
29 78 9.999999738953435E-1
29 79 9.999999691501872E-1
29 86 9.999999992143686E-1
29 101 4.9999992801095894E-1
29 102 4.9999993816347416E-1
29 106 9.999999797297566E-1
29 107 4.999999273686396E-1
29 115 9.999999657124782E-1
29 121 9.999999608931167E-1
30 1 9.999999971236557E-1
30 4 9.999999743802099E-1
30 9 4.999999836098728E-1
30 14 9.9999997149353E-1
30 16 4.999999797935312E-1
30 22 4.9999997880466646E-1
30 29 4.999999804112558E-1
30 37 9.99999995104598E-1
30 52 9.999999986052895E-1
30 54 9.99999995858975E-1
30 55 4.99999978553981E-1
30 57 9.999999974801379E-1
30 67 9.999999799168344E-1
30 75 9.999999990725861E-1
30 78 9.999999945624916E-1
30 79 4.9999997323071976E-1
30 81 9.99999992208497E-1
30 85 9.999999707303553E-1
30 86 4.999999748827581E-1
30 91 4.999999631717156E-1
30 106 9.999999947693895E-1
30 109 4.999999544951708E-1
30 115 9.999999988741488E-1
30 120 9.999999927365771E-1
31 10 9.999999995519493E-1
31 20 9.999999495289495E-1
31 24 4.9999992628189877E-1
31 35 4.9999992828972545E-1
31 42 9.999998759282155E-1
31 44 4.999998191629191E-1
31 61 4.999999235636818E-1
31 63 4.999999346954064E-1
31 77 4.999999116683352E-1
31 89 9.999999058405135E-1
31 90 4.999999026345921E-1
31 96 4.999999426632834E-1
31 99 9.999999274112785E-1
31 105 4.9999994563305794E-1
31 108 4.9999990881379347E-1
31 114 4.999999286855179E-1
32 18 4.9999966614228414E-1
32 19 4.9999991347731676E-1
32 26 4.9999987416783737E-1
32 28 4.9999995974761596E-1
32 33 4.9999979737895855E-1
32 39 9.999999625704827E-1
32 45 9.999999124698667E-1
32 46 9.999999680676256E-1
32 48 4.9999994787716806E-1
32 49 4.999999090162888E-1
32 51 4.9999976448601385E-1
32 53 9.999999328904416E-1
32 62 9.999999719763922E-1
32 66 9.999999835903594E-1
32 68 9.999999405753249E-1
32 73 4.9999991960803175E-1
32 80 4.9999992685989525E-1
32 92 9.999999543962137E-1
32 100 9.999999603551755E-1
32 103 4.999999337645652E-1
33 18 9.999998229829891E-1
33 26 9.999997783162089E-1
33 32 4.9999979737895855E-1
33 39 4.9999971516641756E-1
33 45 4.9999984235682177E-1
33 46 4.99999709778012E-1
33 49 4.999998576443298E-1
33 51 9.999998524839844E-1
33 56 9.999993835463878E-1
33 62 4.9999975231889615E-1
33 66 4.999998016076219E-1
33 92 4.999998085500616E-1
33 93 4.999996797747515E-1
33 97 9.999996900942835E-1
33 100 4.9999973995039426E-1
33 112 9.999997433122338E-1
34 7 9.999999575752587E-1
34 11 4.9999992036116464E-1
34 13 9.999999753048475E-1
34 15 9.999999940610778E-1
34 17 4.9999996970131383E-1
34 23 9.999999933744199E-1
34 27 9.999999924266703E-1
34 43 9.999999473193985E-1
34 47 9.999999450358692E-1
34 59 4.9999996841749356E-1
34 76 9.999999446348874E-1
34 88 4.999999223386457E-1
34 94 4.999999287500447E-1
34 95 4.99999954135697E-1
34 98 4.9999996294964866E-1
34 111 9.999999422062147E-1
34 113 9.999999820219725E-1
34 118 9.999999687789166E-1
34 119 4.9999996578065925E-1
35 10 4.999999360799732E-1
35 14 4.999999452885173E-1
35 20 9.999999706418918E-1
35 24 9.999999952380835E-1
35 25 9.99999975710239E-1
35 31 4.9999992828972545E-1
35 40 4.9999995099563666E-1
35 42 9.999999940808557E-1
35 61 9.999999993367222E-1
35 63 4.999999464266342E-1
35 64 9.999999774314436E-1
35 67 4.999999535681169E-1
35 77 9.999999906546351E-1
35 96 9.999999983873225E-1
35 105 9.999999929972138E-1
35 108 9.999999676238956E-1
35 114 9.999999997745919E-1
36 2 9.999998473472607E-1
36 6 4.9999990424109775E-1
36 11 9.999999105367308E-1
36 13 4.999999219394483E-1
36 38 9.999998235780367E-1
36 65 9.999999763266856E-1
36 69 9.999999972981191E-1
36 76 4.999999392445905E-1
36 83 4.999998308276551E-1
36 84 9.999998216892936E-1
36 88 9.999999813212304E-1
36 94 9.999999941716279E-1
36 95 9.999999496609491E-1
36 101 4.999998978900671E-1
36 102 9.999999186836717E-1
36 107 4.9999987011769526E-1
36 110 9.999998244132324E-1
36 111 4.9999992862184284E-1
37 1 9.999999848429779E-1
37 4 9.999999821146123E-1
37 14 9.999999823322722E-1
37 16 4.999999686738802E-1
37 22 4.999999846196486E-1
37 29 4.999999680648581E-1
37 30 9.99999995104598E-1
37 40 4.9999997654493666E-1
37 52 9.999999912192492E-1
37 54 9.999999978628934E-1
37 57 9.999999896712912E-1
37 67 9.99999994051201E-1
37 75 9.999999969856598E-1
37 78 9.999999794101347E-1
37 81 9.999999994387352E-1
37 82 4.9999997281385156E-1
37 85 9.999999765269744E-1
37 106 9.999999799689772E-1
37 115 9.999999953864036E-1
37 120 9.999999982037603E-1
38 13 4.9999988478258084E-1
38 36 9.999998235780367E-1
38 39 9.999997999246116E-1
38 47 4.999998839565318E-1
38 65 4.999998924048185E-1
38 69 9.99999840473963E-1
38 76 4.9999992183551745E-1
38 83 9.999997579194181E-1
38 84 9.999999816505634E-1
38 88 9.999998996619605E-1
38 94 4.9999989785867566E-1
38 95 9.999998812935127E-1
38 103 4.999999294496891E-1
38 110 9.999999494404653E-1
38 111 4.999999199977382E-1
39 19 4.9999991899956353E-1
39 28 4.9999993636442525E-1
39 32 9.999999625704827E-1
39 33 4.9999971516641756E-1
39 38 9.999997999246116E-1
39 46 4.9999995353218973E-1
39 47 4.99999909172798E-1
39 48 4.9999991319409054E-1
39 53 4.999999334899998E-1
39 62 9.999998911837904E-1
39 66 9.99999984238378E-1
39 68 4.9999995220231236E-1
39 84 4.9999983428277267E-1
39 92 4.999999188828995E-1
39 100 4.999999358349374E-1
39 103 9.999999288798331E-1
39 110 9.999998909349794E-1
40 4 9.999999914661826E-1
40 5 9.999999604267255E-1
40 12 4.999999563579463E-1
40 14 9.999999928678164E-1
40 22 9.999999978008962E-1
40 24 4.999999270374671E-1
40 25 9.999999664194551E-1
40 35 4.9999995099563666E-1
40 37 4.9999997654493666E-1
40 41 9.999999801382221E-1
40 44 4.9999977205908785E-1
40 61 4.99999943711366E-1
40 63 9.999999675467292E-1
40 64 9.99999970056986E-1
40 67 9.99999974047034E-1
40 77 4.9999997549972264E-1
40 81 4.9999998101316356E-1
40 82 9.999999968356172E-1
40 85 9.9999999193907E-1
40 87 4.99999910239145E-1
40 89 4.999998115268412E-1
40 90 4.9999995883897624E-1
40 96 4.9999995015793075E-1
40 99 4.999999630707911E-1
40 105 4.999999660931055E-1
40 108 9.999999822632476E-1
40 114 4.9999995552814397E-1
40 120 4.999999844259972E-1
41 4 4.999999796249136E-1
41 5 9.999999756974327E-1
41 12 9.999999709845895E-1
41 14 4.999999784779165E-1
41 22 9.999999727531149E-1
41 40 9.999999801382221E-1
41 44 4.999998479851324E-1
41 63 9.999999768912886E-1
41 67 4.9999995651599866E-1
41 82 9.999999894081476E-1
41 85 9.999999665587848E-1
41 87 9.999999113659571E-1
41 89 4.9999985144450804E-1
41 90 9.999999714576746E-1
41 99 9.999999396874845E-1
41 108 4.9999996869699126E-1
41 120 4.9999995706521266E-1
42 10 9.999998901613038E-1
42 20 9.999999834406789E-1
42 24 9.999999989517321E-1
42 25 4.999999729168785E-1
42 31 9.999998759282155E-1
42 35 9.999999940808557E-1
42 61 9.999999958312997E-1
42 63 4.999999288907828E-1
42 64 4.9999997427338166E-1
42 77 9.99999969960496E-1
42 96 9.999999948026979E-1
42 99 4.999999338541862E-1
42 105 9.999999820106805E-1
42 108 4.999999681030396E-1
42 114 9.999999918716846E-1
43 7 9.99999999443786E-1
43 15 9.999999570895188E-1
43 17 9.999999909504489E-1
43 21 9.99999951358526E-1
43 23 4.999999663535164E-1
43 27 9.999999712351387E-1
43 34 9.999999473193985E-1
43 47 4.9999996344467185E-1
43 59 9.99999999498461E-1
43 60 9.999999529872412E-1
43 70 9.99999994790082E-1
43 71 4.999999763711673E-1
43 73 4.99999972537148E-1
43 98 9.999999969298776E-1
43 113 4.9999996619753145E-1
43 117 9.999999768864513E-1
43 118 9.999999970906923E-1
43 119 9.999999988543538E-1
44 5 4.9999978307260656E-1
44 10 4.9999981378159736E-1
44 12 4.999998675284395E-1
44 22 4.99999747193771E-1
44 31 4.999998191629191E-1
44 40 4.9999977205908785E-1
44 41 4.999998479851324E-1
44 63 4.999998618575579E-1
44 82 4.999997871909855E-1
44 85 4.999997305933702E-1
44 87 4.999998755132833E-1
44 89 9.999998903146049E-1
44 90 9.999998491696196E-1
44 99 4.999998785307043E-1
44 108 4.99999738054766E-1
45 8 9.999998713033992E-1
45 18 4.999998288627216E-1
45 26 9.999999477387638E-1
45 28 4.9999992737952126E-1
45 32 9.999999124698667E-1
45 33 4.9999984235682177E-1
45 46 9.99999921611407E-1
45 48 4.999999332109802E-1
45 49 9.999999816483203E-1
45 51 4.999998993314833E-1
45 53 4.9999994817771654E-1
45 56 4.999998184147339E-1
45 58 4.99999881944974E-1
45 62 9.999999544259224E-1
45 66 9.999998354312137E-1
45 68 4.999999292405231E-1
45 92 9.999999896623192E-1
45 93 4.9999969899474034E-1
45 97 9.999998693302423E-1
45 100 9.99999955592182E-1
45 112 9.999999118444117E-1
45 116 4.999998272916911E-1
46 19 4.999999565160584E-1
46 26 4.9999987070203283E-1
46 28 9.999999854864831E-1
46 32 9.999999680676256E-1
46 33 4.99999709778012E-1
46 39 4.9999995353218973E-1
46 45 9.99999921611407E-1
46 48 9.999999787527618E-1
46 49 4.9999991549337247E-1
46 53 9.999999933769104E-1
46 60 4.999999574461777E-1
46 62 9.999999954803337E-1
46 66 9.999999121137543E-1
46 68 9.999999901416144E-1
46 71 4.9999996875702446E-1
46 73 9.999999483954836E-1
46 80 9.999999576940468E-1
46 92 9.999999678596012E-1
46 100 9.999999945077921E-1
46 103 4.9999994582476326E-1
47 7 4.999999665331931E-1
47 13 9.999999872838063E-1
47 15 4.9999995679075054E-1
47 17 9.999999608331998E-1
47 19 9.999999903436821E-1
47 23 4.9999995023990806E-1
47 27 9.999999240017104E-1
47 34 9.999999450358692E-1
47 38 4.999998839565318E-1
47 39 4.99999909172798E-1
47 43 4.9999996344467185E-1
47 76 9.999999803857248E-1
47 88 4.9999992998767073E-1
47 95 9.999999283315505E-1
47 98 4.999999642615921E-1
47 103 9.99999971141188E-1
47 110 9.999999312201063E-1
47 111 9.999999872102048E-1
47 113 4.999999342935968E-1
47 117 4.999999629548815E-1
47 118 9.999999446024163E-1
48 3 9.999999457009631E-1
48 8 4.999999341899848E-1
48 17 4.999999706803835E-1
48 19 9.999999496673377E-1
48 21 9.999999574815052E-1
48 28 9.999999957220367E-1
48 32 4.9999994787716806E-1
48 39 4.9999991319409054E-1
48 45 4.999999332109802E-1
48 46 9.999999787527618E-1
48 53 9.999999958542695E-1
48 58 4.999998999450501E-1
48 60 9.999999784554454E-1
48 62 9.999999638638157E-1
48 66 4.9999990595148835E-1
48 68 9.999999879623258E-1
48 71 9.999999888768911E-1
48 73 9.99999992945761E-1
48 80 9.999999964095828E-1
48 92 4.999999609733036E-1
48 100 9.999999707778984E-1
48 103 4.9999994154650307E-1
48 117 9.999999719001047E-1
49 8 9.999998682649843E-1
49 18 9.999997790099174E-1
49 26 9.999999889666498E-1
49 32 4.999999090162888E-1
49 33 4.999998576443298E-1
49 45 9.999999816483203E-1
49 46 4.9999991549337247E-1
49 51 9.9999988731514E-1
49 53 4.9999990162649555E-1
49 56 9.999997772404202E-1
49 58 4.99999884686506E-1
49 62 4.999999401511551E-1
49 92 9.999999443017934E-1
49 93 4.9999979492699814E-1
49 97 9.999999489074537E-1
49 100 4.99999942523111E-1
49 112 9.999999732751946E-1
49 116 9.99999787566028E-1
50 5 4.999999471183927E-1
50 6 9.999999438629781E-1
50 9 4.999999495785824E-1
50 12 9.999998973477588E-1
50 55 4.999999555340412E-1
50 65 9.999998872173155E-1
50 69 4.999999038544263E-1
50 78 4.999999012642147E-1
50 79 4.9999993351686034E-1
50 83 9.999999144966083E-1
50 84 4.9999987066191975E-1
50 87 9.99999924772767E-1
50 91 9.999999472098056E-1
50 102 9.999998920298299E-1
50 104 9.999999988525251E-1
50 109 9.999999566001927E-1
51 8 4.9999978185536165E-1
51 18 9.999999814117101E-1
51 26 9.999999467136091E-1
51 32 4.9999976448601385E-1
51 33 9.999998524839844E-1
51 45 4.999998993314833E-1
51 49 9.9999988731514E-1
51 56 9.999998384047444E-1
51 62 4.9999978319793276E-1
51 92 4.999998505316623E-1
51 93 9.999998081571971E-1
51 97 9.99999955698596E-1
51 100 4.999997828527979E-1
51 112 9.999999592868201E-1
51 116 9.999998165638041E-1
52 1 9.999999969814012E-1
52 6 4.9999994873792475E-1
52 9 4.999999809408664E-1
52 16 9.999999729972681E-1
52 29 9.999999735535283E-1
52 30 9.999999986052895E-1
52 37 9.999999912192492E-1
52 54 9.999999954246104E-1
52 55 4.9999997701095455E-1
52 57 9.999999998258693E-1
52 67 9.999999710631731E-1
52 72 4.9999993775749824E-1
52 75 9.999999984674188E-1
52 78 9.999999952481834E-1
52 79 4.9999997622969483E-1
52 81 9.999999866248288E-1
52 86 9.999999645819004E-1
52 106 9.999999968690583E-1
52 109 4.99999952334396E-1
52 115 9.99999999223255E-1
52 120 9.999999859357902E-1
52 121 4.999999350857588E-1
53 3 4.999999605317992E-1
53 8 4.9999992701044443E-1
53 19 4.999999692266219E-1
53 21 4.9999996394046536E-1
53 28 9.999999963737081E-1
53 32 9.999999328904416E-1
53 39 4.999999334899998E-1
53 45 4.9999994817771654E-1
53 46 9.999999933769104E-1
53 48 9.999999958542695E-1
53 49 4.9999990162649555E-1
53 58 4.9999988513547705E-1
53 60 9.999999556458834E-1
53 62 9.999999831391151E-1
53 66 4.999999306277126E-1
53 68 9.999999940711294E-1
53 71 9.999999714025889E-1
53 73 9.999999784749403E-1
53 80 9.999999845477949E-1
53 92 9.999999476624339E-1
53 100 9.999999865902921E-1
53 103 4.999999458527216E-1
53 117 4.999999737221796E-1
54 1 9.999999869896143E-1
54 4 9.999999682060733E-1
54 14 9.999999680227666E-1
54 16 4.999999781574119E-1
54 29 4.9999997708986693E-1
54 30 9.99999995858975E-1
54 37 9.999999978628934E-1
54 52 9.999999954246104E-1
54 57 9.999999950639227E-1
54 67 9.999999858879575E-1
54 75 9.99999998804988E-1
54 78 9.999999825275778E-1
54 81 9.999999952210555E-1
54 85 9.999999614633442E-1
54 86 4.999999720763589E-1
54 106 9.999999848762555E-1
54 115 9.999999983725606E-1
54 120 9.999999924087973E-1
55 1 9.99999974446592E-1
55 5 9.999999591637426E-1
55 6 9.999999843122498E-1
55 9 9.999999980231605E-1
55 30 4.99999978553981E-1
55 50 4.999999555340412E-1
55 52 4.9999997701095455E-1
55 57 4.999999754466035E-1
55 65 4.99999911393021E-1
55 75 4.9999997197147966E-1
55 78 9.999999785202079E-1
55 79 9.999999851977699E-1
55 83 4.9999982559870576E-1
55 85 4.9999996898122473E-1
55 87 4.999999181381619E-1
55 91 9.999999911953941E-1
55 102 4.999999603261591E-1
55 104 4.999999606150241E-1
55 106 4.999999862332175E-1
55 109 9.999999910289523E-1
55 115 4.9999997250125217E-1
56 3 4.999997031814941E-1
56 8 4.9999983703696255E-1
56 18 9.999998206394554E-1
56 26 9.999998246979264E-1
56 33 9.999993835463878E-1
56 45 4.999998184147339E-1
56 49 9.999997772404202E-1
56 51 9.999998384047444E-1
56 58 4.999998191558091E-1
56 92 4.999997576467648E-1
56 93 9.999999450165529E-1
56 97 9.999999282993451E-1
56 100 4.9999969534590594E-1
56 112 9.999998830846872E-1
56 116 9.999999974747156E-1
57 1 9.999999959301569E-1
57 9 4.99999979105875E-1
57 16 9.999999766872771E-1
57 29 9.999999768395684E-1
57 30 9.999999974801379E-1
57 37 9.999999896712912E-1
57 52 9.999999998258693E-1
57 54 9.999999950639227E-1
57 55 4.999999754466035E-1
57 67 4.99999984045967E-1
57 72 4.999999414373042E-1
57 74 4.999999145115603E-1
57 75 9.999999978094128E-1
57 78 9.999999943590702E-1
57 79 4.9999997620250375E-1
57 81 9.999999845439617E-1
57 86 9.99999968596073E-1
57 106 9.999999965529888E-1
57 109 4.999999502362211E-1
57 115 9.999999988596784E-1
57 120 9.999999832793925E-1
57 121 4.999999388882905E-1
58 3 9.999999451446118E-1
58 8 9.999999837291048E-1
58 21 4.999999413377363E-1
58 45 4.99999881944974E-1
58 48 4.999998999450501E-1
58 49 4.99999884686506E-1
58 53 4.9999988513547705E-1
58 56 4.999998191558091E-1
58 60 4.9999992715497216E-1
58 70 4.9999988353829183E-1
58 71 4.999999067314119E-1
58 73 4.99999902244074E-1
58 80 4.9999991014426126E-1
58 92 4.999998775665465E-1
58 93 4.999996507140517E-1
58 97 4.9999984593160773E-1
58 100 4.999998836134429E-1
58 112 4.9999984561502364E-1
58 116 4.9999984574632356E-1
58 117 4.999998943083757E-1
59 3 4.9999994897596356E-1
59 7 9.999999979306989E-1
59 15 9.999999488321311E-1
59 17 9.999999893243479E-1
59 19 4.999999690652924E-1
59 21 9.999999592205571E-1
59 23 4.9999996115822537E-1
59 27 9.999999643071177E-1
59 34 4.9999996841749356E-1
59 43 9.99999999498461E-1
59 60 9.99999958878165E-1
59 70 9.999999975011129E-1
59 71 4.999999781985014E-1
59 73 4.999999741699463E-1
59 98 9.999999977565567E-1
59 113 4.999999618162331E-1
59 117 9.999999793455394E-1
59 118 9.999999941780809E-1
59 119 9.999999998603903E-1
60 3 9.999999781843165E-1
60 7 4.999999718831889E-1
60 8 4.999999431293557E-1
60 17 9.999999667254992E-1
60 21 9.999999959596783E-1
60 28 9.999999608831918E-1
60 43 9.999999529872412E-1
60 46 4.999999574461777E-1
60 48 9.999999784554454E-1
60 53 9.999999556458834E-1
60 58 4.9999992715497216E-1
60 59 9.99999958878165E-1
60 62 4.999999460829394E-1
60 68 4.999999699158092E-1
60 70 9.999999708916246E-1
60 71 9.999999963943715E-1
60 73 9.999999934817418E-1
60 80 9.999999922500267E-1
60 98 9.999999736616415E-1
60 100 4.999999538280647E-1
60 117 9.999999934366376E-1
60 119 9.99999960283858E-1
61 10 4.999999316101909E-1
61 14 4.9999993895008255E-1
61 20 9.999999688656506E-1
61 24 9.999999977248216E-1
61 25 9.999999704462751E-1
61 31 4.999999235636818E-1
61 35 9.999999993367222E-1
61 40 4.99999943711366E-1
61 42 9.999999958312997E-1
61 63 4.999999376707854E-1
61 64 9.999999713867844E-1
61 67 4.9999994938541814E-1
61 77 9.999999865216562E-1
61 96 9.999999966810995E-1
61 105 9.999999881580379E-1
61 108 4.999999794488302E-1
61 114 9.999999983925338E-1
62 8 4.999999212717005E-1
62 18 4.999996843218801E-1
62 26 4.9999990228091945E-1
62 28 9.999999671921256E-1
62 32 9.999999719763922E-1
62 33 4.9999975231889615E-1
62 39 9.999998911837904E-1
62 45 9.999999544259224E-1
62 46 9.999999954803337E-1
62 48 9.999999638638157E-1
62 49 4.999999401511551E-1
62 51 4.9999978319793276E-1
62 53 9.999999831391151E-1
62 60 4.999999460829394E-1
62 66 9.999999131133431E-1
62 68 9.999999724458429E-1
62 71 4.999999564257251E-1
62 73 4.9999996243920186E-1
62 80 4.999999692583749E-1
62 92 9.999999873925223E-1
62 93 4.9999951667236425E-1
62 97 4.999998371819966E-1
62 100 9.999999989935902E-1
62 112 4.9999987036969906E-1
62 116 4.999996998692773E-1
63 4 4.999999629812623E-1
63 5 4.9999995405472786E-1
63 10 4.99999939000686E-1
63 12 4.9999995379032536E-1
63 14 4.9999996511616557E-1
63 20 4.9999994090994343E-1
63 22 4.999999744108262E-1
63 25 4.9999996192429397E-1
63 31 4.999999346954064E-1
63 35 4.999999464266342E-1
63 40 9.999999675467292E-1
63 41 9.999999768912886E-1
63 42 4.999999288907828E-1
63 44 4.999998618575579E-1
63 61 4.999999376707854E-1
63 64 4.999999679862408E-1
63 77 4.999999629336423E-1
63 82 9.999999632373162E-1
63 85 4.9999996480177883E-1
63 87 4.999999113621307E-1
63 89 4.999999059036504E-1
63 90 9.99999974318784E-1
63 96 4.999999526708072E-1
63 99 9.99999990330626E-1
63 105 9.999999393991637E-1
63 108 9.999999606971088E-1
63 114 4.9999995081024895E-1
64 4 4.9999997928835616E-1
64 10 4.9999990710225906E-1
64 14 9.999999673879171E-1
64 20 4.9999995794529833E-1
64 22 9.999999648967618E-1
64 24 9.999999529891368E-1
64 25 9.999999993795351E-1
64 35 9.999999774314436E-1
64 40 9.99999970056986E-1
64 42 4.9999997427338166E-1
64 61 9.999999713867844E-1
64 63 4.999999679862408E-1
64 67 9.999999731399755E-1
64 77 9.999999971316037E-1
64 81 4.9999997620168046E-1
64 82 4.9999997374554356E-1
64 96 9.999999725622086E-1
64 99 4.9999995444642864E-1
64 105 9.999999828914143E-1
64 108 9.999999969200674E-1
64 114 9.999999813176772E-1
65 2 4.9999990511378833E-1
65 6 9.999999124238776E-1
65 11 9.999998546252385E-1
65 36 9.999999763266856E-1
65 38 4.999998924048185E-1
65 50 9.999998872173155E-1
65 55 4.99999911393021E-1
65 69 9.999999869823682E-1
65 79 4.999999285050562E-1
65 83 4.9999988691495173E-1
65 84 9.999998245885661E-1
65 88 9.999999300125049E-1
65 91 4.9999990773380565E-1
65 94 9.999999495289836E-1
65 95 9.999998651831072E-1
65 101 4.9999989319090155E-1
65 102 9.999999707025838E-1
65 104 9.999999063396494E-1
65 107 4.99999865907337E-1
65 109 4.999999387064868E-1
66 19 4.9999988506996745E-1
66 28 4.9999992598381054E-1
66 32 9.999999835903594E-1
66 33 4.999998016076219E-1
66 39 9.99999984238378E-1
66 45 9.999998354312137E-1
66 46 9.999999121137543E-1
66 48 4.9999990595148835E-1
66 53 4.999999306277126E-1
66 62 9.999999131133431E-1
66 68 4.999999424133409E-1
66 80 4.999998792195541E-1
66 92 9.999998877149817E-1
66 100 9.999998934923665E-1
66 103 4.999999294077102E-1
66 110 4.9999989650728827E-1
67 4 9.999999893857289E-1
67 14 9.999999920354299E-1
67 22 9.999999830943223E-1
67 24 4.999999335542574E-1
67 25 9.999999773833596E-1
67 30 9.999999799168344E-1
67 35 4.999999535681169E-1
67 37 9.99999994051201E-1
67 40 9.99999974047034E-1
67 41 4.9999995651599866E-1
67 52 9.999999710631731E-1
67 54 9.999999858879575E-1
67 57 4.99999984045967E-1
67 61 4.9999994938541814E-1
67 64 9.999999731399755E-1
67 75 9.999999826216434E-1
67 77 4.9999997737916885E-1
67 81 9.999999970343237E-1
67 82 4.99999981376888E-1
67 85 9.999999836349517E-1
67 108 4.999999843463315E-1
67 114 4.999999570127186E-1
67 115 9.999999789744012E-1
67 120 9.9999999615839E-1
68 19 9.999999617241602E-1
68 28 9.999999977325945E-1
68 32 9.999999405753249E-1
68 39 4.9999995220231236E-1
68 45 4.999999292405231E-1
68 46 9.999999901416144E-1
68 48 9.999999879623258E-1
68 53 9.999999940711294E-1
68 60 4.999999699158092E-1
68 62 9.999999724458429E-1
68 66 4.999999424133409E-1
68 71 9.999999634123587E-1
68 73 9.999999719136677E-1
68 80 9.999999747757357E-1
68 92 9.999999233191457E-1
68 100 9.999999725365482E-1
68 103 9.999999362322598E-1
68 110 4.9999991645382547E-1
68 117 4.999999716581516E-1
69 2 9.999998186478509E-1
69 6 4.999999168950991E-1
69 11 9.999998827178505E-1
69 36 9.999999972981191E-1
69 38 9.99999840473963E-1
69 50 4.999999038544263E-1
69 65 9.999999869823682E-1
69 76 4.99999927653391E-1
69 83 4.999998594699282E-1
69 84 9.999998501229042E-1
69 88 9.999999767145124E-1
69 94 9.999999835853051E-1
69 95 9.999999358826962E-1
69 101 4.9999988569899717E-1
69 102 9.999999290859252E-1
69 104 9.999998310606525E-1
69 110 9.999998183535809E-1
69 111 4.999999165074937E-1
70 3 4.9999996233858407E-1
70 7 9.999999908842295E-1
70 15 4.999999626001327E-1
70 17 9.999999836235193E-1
70 19 4.99999962993851E-1
70 21 9.999999748336813E-1
70 27 9.999999439797983E-1
70 43 9.99999994790082E-1
70 58 4.9999988353829183E-1
70 59 9.999999975011129E-1
70 60 9.999999708916246E-1
70 71 9.999999640244076E-1
70 73 9.999999554688688E-1
70 80 4.999999718197866E-1
70 98 9.999999967311833E-1
70 113 4.999999488810188E-1
70 117 9.999999833738078E-1
70 118 9.999999841037149E-1
70 119 9.99999998415011E-1
71 3 9.99999960622657E-1
71 7 4.9999997266163176E-1
71 8 4.999999296670853E-1
71 17 9.999999751096252E-1
71 19 9.9999995871848E-1
71 21 9.999999848995359E-1
71 28 9.999999790647821E-1
71 43 4.999999763711673E-1
71 46 4.9999996875702446E-1
71 48 9.999999888768911E-1
71 53 9.999999714025889E-1
71 58 4.999999067314119E-1
71 59 4.999999781985014E-1
71 60 9.999999963943715E-1
71 62 4.999999564257251E-1
71 68 9.999999634123587E-1
71 70 9.999999640244076E-1
71 73 9.999999994333968E-1
71 80 9.99999997675785E-1
71 98 9.999999735784609E-1
71 100 4.999999623251948E-1
71 117 9.999999957259298E-1
71 119 9.99999956439817E-1
72 1 4.9999993583319646E-1
72 2 9.999999089869579E-1
72 16 9.999999630419412E-1
72 29 9.999999638223732E-1
72 52 4.9999993775749824E-1
72 57 4.999999414373042E-1
72 74 9.999999941546185E-1
72 78 4.9999994079210486E-1
72 79 4.999999604851304E-1
72 86 9.999999726529073E-1
72 101 9.999999607201598E-1
72 102 9.999998808494395E-1
72 106 4.9999994620588945E-1
72 107 9.99999963215677E-1
72 121 9.999999999134878E-1
73 3 9.999999556496125E-1
73 8 4.9999992816811467E-1
73 17 9.999999719447442E-1
73 19 9.999999622959026E-1
73 21 9.999999791894266E-1
73 28 9.999999853827704E-1
73 32 4.9999991960803175E-1
73 43 4.99999972537148E-1
73 46 9.999999483954836E-1
73 48 9.99999992945761E-1
73 53 9.999999784749403E-1
73 58 4.99999902244074E-1
73 59 4.999999741699463E-1
73 60 9.999999934817418E-1
73 62 4.9999996243920186E-1
73 68 9.999999719136677E-1
73 70 9.999999554688688E-1
73 71 9.999999994333968E-1
73 80 9.999999989462495E-1
73 92 4.999999349563027E-1
73 98 9.999999674698242E-1
73 100 4.9999996763143356E-1
73 103 4.999999382601093E-1
73 117 9.999999929778824E-1
73 119 4.999999740144054E-1
74 2 9.99999948862598E-1
74 6 4.999999132913416E-1
74 11 9.999998894242468E-1
74 16 4.999999645481875E-1
74 29 4.999999658083239E-1
74 57 4.999999145115603E-1
74 72 9.999999941546185E-1
74 78 4.999999165898436E-1
74 79 4.99999947777702E-1
74 86 9.999999431681702E-1
74 101 9.999999851797328E-1
74 102 9.999998851158605E-1
74 106 4.999999223016672E-1
74 107 9.999999853720933E-1
74 121 9.999999947459682E-1
75 1 9.999999936408962E-1
75 4 9.999999710202462E-1
75 9 4.9999997764193016E-1
75 14 9.999999693097387E-1
75 16 4.9999998046748434E-1
75 29 4.999999802787002E-1
75 30 9.999999990725861E-1
75 37 9.999999969856598E-1
75 52 9.999999984674188E-1
75 54 9.99999998804988E-1
75 55 4.9999997197147966E-1
75 57 9.999999978094128E-1
75 67 9.999999826216434E-1
75 78 9.999999903239679E-1
75 81 9.999999939888599E-1
75 85 9.999999658578148E-1
75 86 4.9999997511599936E-1
75 106 9.999999916807123E-1
75 115 9.999999998168712E-1
75 120 9.999999928492274E-1
76 13 9.999999927706705E-1
76 15 9.999999030242084E-1
76 17 4.9999994882697296E-1
76 19 4.999999716993979E-1
76 23 9.999999042877581E-1
76 27 4.999999519745225E-1
76 34 9.999999446348874E-1
76 36 4.999999392445905E-1
76 38 4.9999992183551745E-1
76 47 9.999999803857248E-1
76 69 4.99999927653391E-1
76 84 4.999998766916459E-1
76 88 9.999999449262916E-1
76 94 9.999999075709114E-1
76 95 9.999999836946605E-1
76 103 9.999999532237689E-1
76 110 9.999999559175612E-1
76 111 9.999999990887428E-1
76 113 4.99999932604133E-1
76 118 4.999999474412945E-1
77 10 4.9999992008372923E-1
77 14 4.999999725917621E-1
77 20 9.999999406362697E-1
77 22 4.999999713168822E-1
77 24 9.999999732204913E-1
77 25 9.999999961096581E-1
77 31 4.999999116683352E-1
77 35 9.999999906546351E-1
77 40 4.9999997549972264E-1
77 42 9.99999969960496E-1
77 61 9.999999865216562E-1
77 63 4.999999629336423E-1
77 64 9.999999971316037E-1
77 67 4.9999997737916885E-1
77 96 9.999999869605999E-1
77 99 4.999999536563978E-1
77 105 9.999999916983074E-1
77 108 9.999999916719222E-1
77 114 9.99999993077321E-1
78 1 9.999999995766612E-1
78 5 4.999999655716277E-1
78 6 4.999999682974442E-1
78 9 9.999999824902305E-1
78 16 4.9999998488494396E-1
78 29 9.999999738953435E-1
78 30 9.999999945624916E-1
78 37 9.999999794101347E-1
78 50 4.999999012642147E-1
78 52 9.999999952481834E-1
78 54 9.999999825275778E-1
78 55 9.999999785202079E-1
78 57 9.999999943590702E-1
78 72 4.9999994079210486E-1
78 74 4.999999165898436E-1
78 75 9.999999903239679E-1
78 79 9.999999750972127E-1
78 81 9.999999743389311E-1
78 86 4.9999998202788976E-1
78 91 4.999999745930603E-1
78 104 4.9999990874385647E-1
78 106 9.999999994693931E-1
78 109 4.99999971108051E-1
78 115 9.999999914463754E-1
78 120 9.999999771225752E-1
78 121 4.999999378603468E-1
79 1 9.999999682134477E-1
79 2 4.9999988675077267E-1
79 6 9.999999827637419E-1
79 9 9.999999756725609E-1
79 16 9.999999593103422E-1
79 29 9.999999691501872E-1
79 30 4.9999997323071976E-1
79 50 4.9999993351686034E-1
79 52 4.9999997622969483E-1
79 55 9.999999851977699E-1
79 57 4.9999997620250375E-1
79 65 4.999999285050562E-1
79 72 4.999999604851304E-1
79 74 4.99999947777702E-1
79 78 9.999999750972127E-1
79 86 9.999999625849505E-1
79 91 9.999999565550166E-1
79 101 4.999999151868014E-1
79 102 9.999999544916772E-1
79 104 4.999999426529445E-1
79 106 9.999999735619756E-1
79 107 4.9999990438872416E-1
79 109 9.999999728158363E-1
79 121 4.9999995782786405E-1
80 3 9.999999613002757E-1
80 8 4.9999993727200587E-1
80 17 9.999999600176553E-1
80 19 9.999999525012156E-1
80 21 9.999999776208705E-1
80 28 9.999999876291973E-1
80 32 4.9999992685989525E-1
80 46 9.999999576940468E-1
80 48 9.999999964095828E-1
80 53 9.999999845477949E-1
80 58 4.9999991014426126E-1
80 60 9.999999922500267E-1
80 62 4.999999692583749E-1
80 66 4.999998792195541E-1
80 68 9.999999747757357E-1
80 70 4.999999718197866E-1
80 71 9.99999997675785E-1
80 73 9.999999989462495E-1
80 92 4.999999453384637E-1
80 98 9.99999955713033E-1
80 100 9.999999486653023E-1
80 117 9.999999871701613E-1
80 119 4.999999669974654E-1
81 1 9.999999805065023E-1
81 4 9.999999866768395E-1
81 14 9.999999874250111E-1
81 22 9.999999759571496E-1
81 25 4.999999792304822E-1
81 30 9.99999992208497E-1
81 37 9.999999994387352E-1
81 40 4.9999998101316356E-1
81 52 9.999999866248288E-1
81 54 9.999999952210555E-1
81 57 9.999999845439617E-1
81 64 4.9999997620168046E-1
81 67 9.999999970343237E-1
81 75 9.999999939888599E-1
81 78 9.999999743389311E-1
81 82 4.999999770027488E-1
81 85 9.999999813296182E-1
81 106 4.9999998710575083E-1
81 115 9.99999991749248E-1
81 120 9.999999991978291E-1
82 4 9.999999901111793E-1
82 5 9.999999790825208E-1
82 12 4.9999997057179046E-1
82 14 9.999999890330955E-1
82 22 9.999999960243074E-1
82 25 4.999999715464708E-1
82 37 4.9999997281385156E-1
82 40 9.999999968356172E-1
82 41 9.999999894081476E-1
82 44 4.999997871909855E-1
82 63 9.999999632373162E-1
82 64 4.9999997374554356E-1
82 67 4.99999981376888E-1
82 81 4.999999770027488E-1
82 85 9.999999931639755E-1
82 87 4.999999315242679E-1
82 89 4.9999980803232025E-1
82 90 4.999999646434463E-1
82 99 4.999999581810949E-1
82 108 9.999999643374345E-1
82 120 4.999999817824804E-1
83 5 4.9999983009776566E-1
83 6 4.999998652084394E-1
83 12 4.9999987021666725E-1
83 36 4.999998308276551E-1
83 38 9.999997579194181E-1
83 50 9.999999144966083E-1
83 55 4.9999982559870576E-1
83 65 4.9999988691495173E-1
83 69 4.999998594699282E-1
83 84 9.999998727006114E-1
83 87 9.999998420229513E-1
83 91 4.999998660250852E-1
83 102 4.9999984411713627E-1
83 104 9.999999019365208E-1
83 109 4.9999987493620435E-1
84 36 9.999998216892936E-1
84 38 9.999999816505634E-1
84 39 4.9999983428277267E-1
84 50 4.9999987066191975E-1
84 65 9.999998245885661E-1
84 69 9.999998501229042E-1
84 76 4.999998766916459E-1
84 83 9.999998727006114E-1
84 88 9.999998726681059E-1
84 94 4.999998878182551E-1
84 95 4.99999912542094E-1
84 103 4.999998712087641E-1
84 104 4.9999987248839184E-1
84 110 9.999998754858904E-1
84 111 4.9999987152647124E-1
85 1 4.999999813543795E-1
85 4 9.99999999372045E-1
85 5 9.999999746548272E-1
85 9 4.999999790034348E-1
85 12 4.9999995585693874E-1
85 14 9.999999979660874E-1
85 22 9.999999980194709E-1
85 30 9.999999707303553E-1
85 37 9.999999765269744E-1
85 40 9.9999999193907E-1
85 41 9.999999665587848E-1
85 44 4.999997305933702E-1
85 54 9.999999614633442E-1
85 55 4.9999996898122473E-1
85 63 4.9999996480177883E-1
85 67 9.999999836349517E-1
85 75 9.999999658578148E-1
85 81 9.999999813296182E-1
85 82 9.999999931639755E-1
85 87 4.9999991240794806E-1
85 90 4.9999993930280334E-1
85 91 4.9999996800421154E-1
85 108 4.999999801352896E-1
85 120 9.999999876980803E-1
86 1 4.999999799331498E-1
86 2 4.9999989694952607E-1
86 16 9.999999991438414E-1
86 29 9.999999992143686E-1
86 30 4.999999748827581E-1
86 52 9.999999645819004E-1
86 54 4.999999720763589E-1
86 57 9.99999968596073E-1
86 72 9.999999726529073E-1
86 74 9.999999431681702E-1
86 75 4.9999997511599936E-1
86 78 4.9999998202788976E-1
86 79 9.999999625849505E-1
86 101 4.999999359783781E-1
86 106 4.9999998550611185E-1
86 107 4.999999362770125E-1
86 115 4.9999997803920787E-1
86 121 9.999999702355741E-1
87 5 4.999999640081138E-1
87 9 4.999999235015746E-1
87 12 9.999999834346249E-1
87 40 4.99999910239145E-1
87 41 9.999999113659571E-1
87 44 4.999998755132833E-1
87 50 9.99999924772767E-1
87 55 4.999999181381619E-1
87 63 4.999999113621307E-1
87 82 4.999999315242679E-1
87 83 9.999998420229513E-1
87 85 4.9999991240794806E-1
87 90 9.999999058674588E-1
87 91 4.999999514879497E-1
87 104 9.999999082552352E-1
87 109 4.9999993400649123E-1
88 11 9.999998529499976E-1
88 13 4.9999995532067365E-1
88 34 4.999999223386457E-1
88 36 9.999999813212304E-1
88 38 9.999998996619605E-1
88 47 4.9999992998767073E-1
88 65 9.999999300125049E-1
88 69 9.999999767145124E-1
88 76 9.999999449262916E-1
88 84 9.999998726681059E-1
88 94 9.999999806399765E-1
88 95 9.999999883709274E-1
88 103 4.999999221922005E-1
88 110 9.99999920084491E-1
88 111 9.999999317586187E-1
89 10 9.999998963354311E-1
89 12 4.9999981463336657E-1
89 20 4.9999986940341623E-1
89 31 9.999999058405135E-1
89 40 4.999998115268412E-1
89 41 4.9999985144450804E-1
89 44 9.999998903146049E-1
89 63 4.999999059036504E-1
89 82 4.9999980803232025E-1
89 90 9.99999844573069E-1
89 96 4.999998253443952E-1
89 99 4.9999993924992575E-1
89 105 4.999998450496041E-1
89 108 4.999998211208715E-1
89 114 4.9999980607623323E-1
90 4 4.999999334773944E-1
90 5 4.999999532324702E-1
90 12 9.999999509934684E-1
90 14 4.999999329998739E-1
90 22 4.9999994781737955E-1
90 31 4.999999026345921E-1
90 40 4.9999995883897624E-1
90 41 9.999999714576746E-1
90 44 9.999998491696196E-1
90 63 9.99999974318784E-1
90 82 4.999999646434463E-1
90 85 4.9999993930280334E-1
90 87 9.999999058674588E-1
90 89 9.99999844573069E-1
90 99 9.999999637540321E-1
90 108 4.99999938568618E-1
91 1 4.9999997270680524E-1
91 4 4.9999996305552263E-1
91 5 9.999999785679683E-1
91 6 9.999999771045655E-1
91 9 9.99999991317647E-1
91 12 9.999999344331517E-1
91 30 4.999999631717156E-1
91 50 9.999999472098056E-1
91 55 9.999999911953941E-1
91 65 4.9999990773380565E-1
91 78 4.999999745930603E-1
91 79 9.999999565550166E-1
91 83 4.999998660250852E-1
91 85 4.9999996800421154E-1
91 87 4.999999514879497E-1
91 102 4.999999488452703E-1
91 104 9.999999513752438E-1
91 106 4.9999996941909014E-1
91 109 9.99999993212521E-1
92 8 9.999998638712313E-1
92 18 4.9999976677825336E-1
92 26 9.9999989105836E-1
92 28 4.9999995909629724E-1
92 32 9.999999543962137E-1
92 33 4.999998085500616E-1
92 39 4.999999188828995E-1
92 45 9.999999896623192E-1
92 46 9.999999678596012E-1
92 48 4.999999609733036E-1
92 49 9.999999443017934E-1
92 51 4.999998505316623E-1
92 53 9.999999476624339E-1
92 56 4.999997576467648E-1
92 58 4.999998775665465E-1
92 62 9.999999873925223E-1
92 66 9.999998877149817E-1
92 68 9.999999233191457E-1
92 73 4.999999349563027E-1
92 80 4.999999453384637E-1
92 93 4.999996165437373E-1
92 97 4.9999989336126366E-1
92 100 9.999999870801963E-1
92 112 4.9999992063857823E-1
92 116 4.999997700993394E-1
93 8 4.9999967962488195E-1
93 18 9.999998537133221E-1
93 26 4.9999984328473557E-1
93 33 4.999996797747515E-1
93 45 4.9999969899474034E-1
93 49 4.9999979492699814E-1
93 51 9.999998081571971E-1
93 56 9.999999450165529E-1
93 58 4.999996507140517E-1
93 62 4.9999951667236425E-1
93 92 4.999996165437373E-1
93 97 9.999998281685281E-1
93 100 4.9999952759252314E-1
93 112 9.999997665415988E-1
93 116 9.99999920492872E-1
94 2 9.99999874202719E-1
94 11 9.999999382730095E-1
94 13 4.9999994279272175E-1
94 23 4.9999992111327035E-1
94 34 4.999999287500447E-1
94 36 9.999999941716279E-1
94 38 4.9999989785867566E-1
94 65 9.999999495289836E-1
94 69 9.999999835853051E-1
94 76 9.999999075709114E-1
94 84 4.999998878182551E-1
94 88 9.999999806399765E-1
94 95 9.99999963445776E-1
94 101 9.99999814575578E-1
94 102 9.999998892635678E-1
94 107 4.999998812862581E-1
94 110 9.999998307881887E-1
94 111 9.999998883495986E-1
95 11 4.999999210249364E-1
95 13 9.999999630358832E-1
95 19 4.9999993326640524E-1
95 23 4.999999355554945E-1
95 34 4.99999954135697E-1
95 36 9.999999496609491E-1
95 38 9.999998812935127E-1
95 47 9.999999283315505E-1
95 65 9.999998651831072E-1
95 69 9.999999358826962E-1
95 76 9.999999836946605E-1
95 84 4.99999912542094E-1
95 88 9.999999883709274E-1
95 94 9.99999963445776E-1
95 103 9.999999040929133E-1
95 110 9.999999459410653E-1
95 111 9.999999758327017E-1
96 10 9.99999899208289E-1
96 20 9.999999816935964E-1
96 24 9.999999933661133E-1
96 25 9.99999968856173E-1
96 31 4.999999426632834E-1
96 35 9.999999983873225E-1
96 40 4.9999995015793075E-1
96 42 9.999999948026979E-1
96 61 9.999999966810995E-1
96 63 4.999999526708072E-1
96 64 9.999999725622086E-1
96 77 9.999999869605999E-1
96 89 4.999998253443952E-1
96 99 9.999999083234128E-1
96 105 9.999999961060543E-1
96 108 9.999999661963445E-1
96 114 9.999999983428657E-1
97 8 4.99999888910526E-1
97 18 9.999999024898263E-1
97 26 9.999999766816615E-1
97 33 9.999996900942835E-1
97 45 9.999998693302423E-1
97 49 9.999999489074537E-1
97 51 9.99999955698596E-1
97 56 9.999999282993451E-1
97 58 4.9999984593160773E-1
97 62 4.999998371819966E-1
97 92 4.9999989336126366E-1
97 93 9.999998281685281E-1
97 100 4.9999984238850514E-1
97 112 9.999999944373147E-1
97 116 9.999999257973512E-1
98 3 4.999999579628529E-1
98 7 9.999999943981649E-1
98 15 4.999999665533095E-1
98 17 9.999999949806068E-1
98 19 9.99999953684265E-1
98 21 9.999999703494381E-1
98 23 4.9999995189699775E-1
98 27 9.99999951189794E-1
98 34 4.9999996294964866E-1
98 43 9.999999969298776E-1
98 47 4.999999642615921E-1
98 59 9.999999977565567E-1
98 60 9.999999736616415E-1
98 70 9.999999967311833E-1
98 71 9.999999735784609E-1
98 73 9.999999674698242E-1
98 80 9.99999955713033E-1
98 113 4.9999995061513386E-1
98 117 9.999999905528785E-1
98 118 9.999999905092465E-1
98 119 9.999999974463337E-1
99 10 9.999999326514912E-1
99 20 9.999999111200985E-1
99 22 4.9999994924147934E-1
99 24 4.9999992676276206E-1
99 31 9.999999274112785E-1
99 40 4.999999630707911E-1
99 41 9.999999396874845E-1
99 42 4.999999338541862E-1
99 44 4.999998785307043E-1
99 63 9.99999990330626E-1
99 64 4.9999995444642864E-1
99 77 4.999999536563978E-1
99 82 4.999999581810949E-1
99 89 4.9999993924992575E-1
99 90 9.999999637540321E-1
99 96 9.999999083234128E-1
99 105 9.999999380207308E-1
99 108 4.999999679774497E-1
99 114 4.99999948468967E-1
100 3 4.9999994585443763E-1
100 8 4.999999328199314E-1
100 18 4.9999968372425435E-1
100 26 4.9999990396543054E-1
100 28 9.999999702929634E-1
100 32 9.999999603551755E-1
100 33 4.9999973995039426E-1
100 39 4.999999358349374E-1
100 45 9.99999955592182E-1
100 46 9.999999945077921E-1
100 48 9.999999707778984E-1
100 49 4.99999942523111E-1
100 51 4.999997828527979E-1
100 53 9.999999865902921E-1
100 56 4.9999969534590594E-1
100 58 4.999998836134429E-1
100 60 4.999999538280647E-1
100 62 9.999999989935902E-1
100 66 9.999998934923665E-1
100 68 9.999999725365482E-1
100 71 4.999999623251948E-1
100 73 4.9999996763143356E-1
100 80 9.999999486653023E-1
100 92 9.999999870801963E-1
100 93 4.9999952759252314E-1
100 97 4.9999984238850514E-1
100 112 4.999998737452479E-1
100 116 4.9999971310187474E-1
101 2 9.999999881314657E-1
101 11 9.999999484690296E-1
101 16 4.9999992539384036E-1
101 29 4.9999992801095894E-1
101 36 4.999998978900671E-1
101 65 4.9999989319090155E-1
101 69 4.9999988569899717E-1
101 72 9.999999607201598E-1
101 74 9.999999851797328E-1
101 79 4.999999151868014E-1
101 86 4.999999359783781E-1
101 94 9.99999814575578E-1
101 102 4.9999993349246136E-1
101 107 9.999999966565146E-1
101 121 9.999999624100375E-1
102 2 4.9999992827911866E-1
102 6 9.999999715091672E-1
102 9 4.999999468152291E-1
102 11 4.9999992925772924E-1
102 29 4.9999993816347416E-1
102 36 9.999999186836717E-1
102 50 9.999998920298299E-1
102 55 4.999999603261591E-1
102 65 9.999999707025838E-1
102 69 9.999999290859252E-1
102 72 9.999998808494395E-1
102 74 9.999998851158605E-1
102 79 9.999999544916772E-1
102 83 4.9999984411713627E-1
102 91 4.999999488452703E-1
102 94 9.999998892635678E-1
102 101 4.9999993349246136E-1
102 104 9.999999131168905E-1
102 107 4.999999148307546E-1
102 109 9.999999432580331E-1
102 121 4.999999379044142E-1
103 13 9.99999936268973E-1
103 17 4.999999442687478E-1
103 19 9.999999642575718E-1
103 28 9.999999213822762E-1
103 32 4.999999337645652E-1
103 38 4.999999294496891E-1
103 39 9.999999288798331E-1
103 46 4.9999994582476326E-1
103 47 9.99999971141188E-1
103 48 4.9999994154650307E-1
103 53 4.999999458527216E-1
103 66 4.999999294077102E-1
103 68 9.999999362322598E-1
103 73 4.999999382601093E-1
103 76 9.999999532237689E-1
103 84 4.999998712087641E-1
103 88 4.999999221922005E-1
103 95 9.999999040929133E-1
103 110 9.999999753007499E-1
103 111 9.999999638516773E-1
104 5 4.999999458774793E-1
104 6 9.999999562916884E-1
104 9 4.999999538182387E-1
104 12 4.999999422813915E-1
104 50 9.999999988525251E-1
104 55 4.999999606150241E-1
104 65 9.999999063396494E-1
104 69 9.999998310606525E-1
104 78 4.9999990874385647E-1
104 79 4.999999426529445E-1
104 83 9.999999019365208E-1
104 84 4.9999987248839184E-1
104 87 9.999999082552352E-1
104 91 9.999999513752438E-1
104 102 9.999999131168905E-1
104 109 9.999999646947864E-1
105 10 4.999999522291666E-1
105 20 9.99999974192592E-1
105 22 4.999999576406036E-1
105 24 9.999999796451925E-1
105 25 9.999999778927638E-1
105 31 4.9999994563305794E-1
105 35 9.999999929972138E-1
105 40 4.999999660931055E-1
105 42 9.999999820106805E-1
105 61 9.999999881580379E-1
105 63 9.999999393991637E-1
105 64 9.999999828914143E-1
105 77 9.999999916983074E-1
105 89 4.999998450496041E-1
105 96 9.999999961060543E-1
105 99 9.999999380207308E-1
105 108 9.999999823226409E-1
105 114 9.999999948047487E-1
106 1 9.999999990813301E-1
106 6 4.9999996474473896E-1
106 9 9.999999761526147E-1
106 16 9.999999766014471E-1
106 29 9.999999797297566E-1
106 30 9.999999947693895E-1
106 37 9.999999799689772E-1
106 52 9.999999968690583E-1
106 54 9.999999848762555E-1
106 55 4.999999862332175E-1
106 57 9.999999965529888E-1
106 72 4.9999994620588945E-1
106 74 4.999999223016672E-1
106 75 9.999999916807123E-1
106 78 9.999999994693931E-1
106 79 9.999999735619756E-1
106 81 4.9999998710575083E-1
106 86 4.9999998550611185E-1
106 91 4.9999996941909014E-1
106 107 4.999998673177415E-1
106 109 4.999999665441142E-1
106 115 9.999999931697654E-1
106 120 4.9999998788507594E-1
106 121 4.9999994347704757E-1
107 2 9.99999977141504E-1
107 11 9.999999246086266E-1
107 16 4.999999262579801E-1
107 29 4.999999273686396E-1
107 36 4.9999987011769526E-1
107 65 4.99999865907337E-1
107 72 9.99999963215677E-1
107 74 9.999999853720933E-1
107 79 4.9999990438872416E-1
107 86 4.999999362770125E-1
107 94 4.999998812862581E-1
107 101 9.999999966565146E-1
107 102 4.999999148307546E-1
107 106 4.999998673177415E-1
107 121 9.999999656849785E-1
108 4 9.999999653535477E-1
108 10 4.999999167040941E-1
108 14 9.999999728462259E-1
108 20 4.999999574341178E-1
108 22 9.999999747603947E-1
108 24 4.9999996902154814E-1
108 25 9.99999993961428E-1
108 31 4.9999990881379347E-1
108 35 9.999999676238956E-1
108 40 9.999999822632476E-1
108 41 4.9999996869699126E-1
108 42 4.999999681030396E-1
108 44 4.99999738054766E-1
108 61 4.999999794488302E-1
108 63 9.999999606971088E-1
108 64 9.999999969200674E-1
108 67 4.999999843463315E-1
108 77 9.999999916719222E-1
108 82 9.999999643374345E-1
108 85 4.999999801352896E-1
108 89 4.999998211208715E-1
108 90 4.99999938568618E-1
108 96 9.999999661963445E-1
108 99 4.999999679774497E-1
108 105 9.999999823226409E-1
108 114 9.999999727501572E-1
109 1 4.9999996763803967E-1
109 5 9.999999476843727E-1
109 6 9.99999994944306E-1
109 9 9.999999839545687E-1
109 12 4.99999946124021E-1
109 30 4.999999544951708E-1
109 50 9.999999566001927E-1
109 52 4.99999952334396E-1
109 55 9.999999910289523E-1
109 57 4.999999502362211E-1
109 65 4.999999387064868E-1
109 78 4.99999971108051E-1
109 79 9.999999728158363E-1
109 83 4.9999987493620435E-1
109 87 4.9999993400649123E-1
109 91 9.99999993212521E-1
109 102 9.999999432580331E-1
109 104 9.999999646947864E-1
109 106 4.999999665441142E-1
110 13 9.999999182217085E-1
110 19 4.99999947782252E-1
110 36 9.999998244132324E-1
110 38 9.999999494404653E-1
110 39 9.999998909349794E-1
110 47 9.999999312201063E-1
110 66 4.9999989650728827E-1
110 68 4.9999991645382547E-1
110 69 9.999998183535809E-1
110 76 9.999999559175612E-1
110 84 9.999998754858904E-1
110 88 9.99999920084491E-1
110 94 9.999998307881887E-1
110 95 9.999999459410653E-1
110 103 9.999999753007499E-1
110 111 9.999999591023485E-1
111 13 9.999999929768582E-1
111 15 4.999999504704206E-1
111 17 4.9999995504320516E-1
111 19 9.999999558966858E-1
111 23 9.99999899079189E-1
111 27 4.999999520703143E-1
111 34 9.999999422062147E-1
111 36 4.9999992862184284E-1
111 38 4.999999199977382E-1
111 47 9.999999872102048E-1
111 69 4.999999165074937E-1
111 76 9.999999990887428E-1
111 84 4.9999987152647124E-1
111 88 9.999999317586187E-1
111 94 9.999998883495986E-1
111 95 9.999999758327017E-1
111 103 9.999999638516773E-1
111 110 9.999999591023485E-1
111 118 4.9999995126998587E-1
112 8 4.9999989475702683E-1
112 18 9.999998941374265E-1
112 26 9.999999938400538E-1
112 33 9.999997433122338E-1
112 45 9.999999118444117E-1
112 49 9.999999732751946E-1
112 51 9.999999592868201E-1
112 56 9.999998830846872E-1
112 58 4.9999984561502364E-1
112 62 4.9999987036969906E-1
112 92 4.9999992063857823E-1
112 93 9.999997665415988E-1
112 97 9.999999944373147E-1
112 100 4.999998737452479E-1
112 116 9.999998814913821E-1
113 7 4.999999713300966E-1
113 11 4.999999242356812E-1
113 13 9.999999152488604E-1
113 15 9.999999950321622E-1
113 17 4.9999994948760657E-1
113 23 9.999999964621261E-1
113 27 9.999999897042899E-1
113 34 9.999999820219725E-1
113 43 4.9999996619753145E-1
113 47 4.999999342935968E-1
113 59 4.999999618162331E-1
113 70 4.999999488810188E-1
113 76 4.99999932604133E-1
113 98 4.9999995061513386E-1
113 118 9.999999505906007E-1
113 119 4.9999996007090375E-1
114 10 4.9999993644038937E-1
114 14 4.999999497297391E-1
114 20 9.999999691366848E-1
114 24 9.999999929517588E-1
114 25 9.999999793924266E-1
114 31 4.999999286855179E-1
114 35 9.999999997745919E-1
114 40 4.9999995552814397E-1
114 42 9.999999918716846E-1
114 61 9.999999983925338E-1
114 63 4.9999995081024895E-1
114 64 9.999999813176772E-1
114 67 4.999999570127186E-1
114 77 9.99999993077321E-1
114 89 4.9999980607623323E-1
114 96 9.999999983428657E-1
114 99 4.99999948468967E-1
114 105 9.999999948047487E-1
114 108 9.999999727501572E-1
115 1 9.999999943254151E-1
115 4 9.999999666074053E-1
115 9 4.9999997764073434E-1
115 16 9.999999661004916E-1
115 29 9.999999657124782E-1
115 30 9.999999988741488E-1
115 37 9.999999953864036E-1
115 52 9.99999999223255E-1
115 54 9.999999983725606E-1
115 55 4.9999997250125217E-1
115 57 9.999999988596784E-1
115 67 9.999999789744012E-1
115 75 9.999999998168712E-1
115 78 9.999999914463754E-1
115 81 9.99999991749248E-1
115 86 4.9999997803920787E-1
115 106 9.999999931697654E-1
115 120 9.999999903999037E-1
116 3 4.9999973303852674E-1
116 8 4.9999985928371377E-1
116 18 9.99999786812853E-1
116 26 9.999998251307485E-1
116 45 4.999998272916911E-1
116 49 9.99999787566028E-1
116 51 9.999998165638041E-1
116 56 9.999999974747156E-1
116 58 4.9999984574632356E-1
116 62 4.999996998692773E-1
116 92 4.999997700993394E-1
116 93 9.99999920492872E-1
116 97 9.999999257973512E-1
116 100 4.9999971310187474E-1
116 112 9.999998814913821E-1
117 3 4.9999997423055276E-1
117 7 9.999999714840642E-1
117 8 4.9999991254414133E-1
117 17 9.999999896423424E-1
117 19 9.999999635886568E-1
117 21 9.999999850668202E-1
117 28 4.9999998098843146E-1
117 43 9.999999768864513E-1
117 47 4.999999629548815E-1
117 48 9.999999719001047E-1
117 53 4.999999737221796E-1
117 58 4.999998943083757E-1
117 59 9.999999793455394E-1
117 60 9.999999934366376E-1
117 68 4.999999716581516E-1
117 70 9.999999833738078E-1
117 71 9.999999957259298E-1
117 73 9.999999929778824E-1
117 80 9.999999871701613E-1
117 98 9.999999905528785E-1
117 118 9.999999659284765E-1
117 119 9.999999792130823E-1
118 7 9.999999990121788E-1
118 13 4.999999706443679E-1
118 15 9.999999735969329E-1
118 17 9.999999901194107E-1
118 19 9.999999510427721E-1
118 23 9.999999544951083E-1
118 27 9.999999843888082E-1
118 34 9.999999687789166E-1
118 43 9.999999970906923E-1
118 47 9.999999446024163E-1
118 59 9.999999941780809E-1
118 70 9.999999841037149E-1
118 76 4.999999474412945E-1
118 98 9.999999905092465E-1
118 111 4.9999995126998587E-1
118 113 9.999999505906007E-1
118 117 9.999999659284765E-1
118 119 9.999999923456323E-1
119 3 4.9999995129751396E-1
119 7 9.999999968263417E-1
119 15 9.999999450988768E-1
119 17 9.999999874595992E-1
119 21 9.999999619450505E-1
119 23 4.999999588354382E-1
119 27 9.999999610764232E-1
119 34 4.9999996578065925E-1
119 43 9.999999988543538E-1
119 59 9.999999998603903E-1
119 60 9.99999960283858E-1
119 70 9.99999998415011E-1
119 71 9.99999956439817E-1
119 73 4.999999740144054E-1
119 80 4.999999669974654E-1
119 98 9.999999974463337E-1
119 113 4.9999996007090375E-1
119 117 9.999999792130823E-1
119 118 9.999999923456323E-1
120 1 9.999999828483133E-1
120 4 9.999999916368117E-1
120 5 4.999999687442853E-1
120 14 9.999999915095747E-1
120 22 9.999999820656609E-1
120 25 4.9999997773185373E-1
120 30 9.999999927365771E-1
120 37 9.999999982037603E-1
120 40 4.999999844259972E-1
120 41 4.9999995706521266E-1
120 52 9.999999859357902E-1
120 54 9.999999924087973E-1
120 57 9.999999832793925E-1
120 67 9.9999999615839E-1
120 75 9.999999928492274E-1
120 78 9.999999771225752E-1
120 81 9.999999991978291E-1
120 82 4.999999817824804E-1
120 85 9.999999876980803E-1
120 106 4.9999998788507594E-1
120 115 9.999999903999037E-1
121 1 4.999999328468017E-1
121 2 9.999999108955713E-1
121 11 4.9999991905235813E-1
121 16 9.999999604028958E-1
121 29 9.999999608931167E-1
121 52 4.999999350857588E-1
121 57 4.999999388882905E-1
121 72 9.999999999134878E-1
121 74 9.999999947459682E-1
121 78 4.999999378603468E-1
121 79 4.9999995782786405E-1
121 86 9.999999702355741E-1
121 101 9.999999624100375E-1
121 102 4.999999379044142E-1
121 106 4.9999994347704757E-1
121 107 9.999999656849785E-1
