%%MatrixMarket matrix coordinate real general
%
121 121 784
1 9 4.9999999010894386E-1
1 30 9.999999971236557E-1
1 52 9.999999969814012E-1
1 57 4.9999999796507844E-1
1 78 9.999999995766612E-1
1 106 9.999999990813301E-1
2 11 9.999999845851593E-1
2 74 9.99999948862598E-1
2 101 9.999999881314657E-1
2 107 9.99999977141504E-1
2 121 4.9999995544778564E-1
3 8 9.999999598499443E-1
3 21 9.999999860752602E-1
3 58 4.999999725723059E-1
3 60 4.9999998909215826E-1
3 71 4.999999803113285E-1
3 80 4.9999998065013784E-1
4 14 9.999999994689612E-1
4 22 9.999999978952014E-1
4 40 9.999999914661826E-1
4 67 4.9999999469286444E-1
4 82 4.999999950555897E-1
4 85 9.99999999372045E-1
4 120 4.999999958184059E-1
5 12 9.99999973938676E-1
5 41 9.999999756974327E-1
5 82 4.999999895412604E-1
5 85 4.999999873274136E-1
5 87 4.999999640081138E-1
5 91 9.999999785679683E-1
6 9 4.999999858855827E-1
6 50 4.9999997193148904E-1
6 55 9.999999843122498E-1
6 79 9.999999827637419E-1
6 91 9.999999771045655E-1
6 102 4.999999857545836E-1
6 104 4.999999781458442E-1
6 109 9.99999994944306E-1
7 17 4.9999999514068444E-1
7 43 9.99999999443786E-1
7 59 9.999999979306989E-1
7 70 4.9999999544211476E-1
7 98 4.9999999719908245E-1
7 118 9.999999990121788E-1
7 119 9.999999968263417E-1
8 3 9.999999598499443E-1
8 21 4.999999493877706E-1
8 58 9.999999837291048E-1
8 60 4.999999431293557E-1
8 80 4.9999993727200587E-1
9 1 4.9999999010894386E-1
9 6 4.999999858855827E-1
9 55 9.999999980231605E-1
9 78 4.9999999124511524E-1
9 79 4.9999998783628047E-1
9 91 9.99999991317647E-1
9 109 9.999999839545687E-1
10 20 4.9999997916415007E-1
10 31 9.999999995519493E-1
10 89 4.9999994816771554E-1
10 96 4.999999496041445E-1
10 99 4.999999663257456E-1
10 105 4.999999522291666E-1
11 2 9.999999845851593E-1
11 36 4.999999552683654E-1
11 94 4.9999996913650474E-1
11 101 4.999999742345148E-1
11 107 4.999999623043133E-1
12 5 9.99999973938676E-1
12 41 4.9999998549229474E-1
12 44 4.999998675284395E-1
12 82 4.9999997057179046E-1
12 87 9.999999834346249E-1
12 90 9.999999509934684E-1
13 34 9.999999753048475E-1
13 47 9.999999872838063E-1
13 76 9.999999927706705E-1
13 95 9.999999630358832E-1
13 111 9.999999929768582E-1
14 4 9.999999994689612E-1
14 22 9.999999981444502E-1
14 40 9.999999928678164E-1
14 67 9.999999920354299E-1
14 85 9.999999979660874E-1
15 23 9.999999972258368E-1
15 27 9.999999985781272E-1
15 34 9.999999940610778E-1
15 113 9.999999950321622E-1
15 118 4.9999998679846647E-1
16 29 9.999999992986229E-1
16 52 4.9999998649863403E-1
16 57 4.9999998834363857E-1
16 86 9.999999991438414E-1
16 106 4.9999998830072356E-1
17 7 4.9999999514068444E-1
17 19 4.9999998933891404E-1
17 43 4.9999999547522445E-1
17 98 9.999999949806068E-1
17 117 9.999999896423424E-1
17 118 4.999999950597053E-1
18 26 4.999999333657031E-1
18 33 4.9999991149149453E-1
18 51 9.999999814117101E-1
18 93 9.999998537133221E-1
18 97 4.9999995124491314E-1
18 112 4.9999994706871326E-1
19 17 4.9999998933891404E-1
19 28 4.9999998234419707E-1
19 47 9.999999903436821E-1
19 103 9.999999642575718E-1
19 117 4.999999817943284E-1
20 10 4.9999997916415007E-1
20 24 4.9999998705224924E-1
20 31 4.999999747644748E-1
20 35 4.999999853209459E-1
20 42 4.9999999172033943E-1
20 96 4.999999908467982E-1
20 105 4.99999987096296E-1
21 3 9.999999860752602E-1
21 8 4.999999493877706E-1
21 58 4.999999413377363E-1
21 60 9.999999959596783E-1
21 71 4.9999999244976795E-1
21 73 4.999999895947133E-1
21 117 4.999999925334101E-1
22 4 9.999999978952014E-1
22 14 9.999999981444502E-1
22 40 9.999999978008962E-1
22 41 4.9999998637655746E-1
22 82 9.999999960243074E-1
22 85 9.999999980194709E-1
23 15 9.999999972258368E-1
23 27 9.999999919305946E-1
23 34 9.999999933744199E-1
23 113 9.999999964621261E-1
23 118 4.9999997724755413E-1
24 20 4.9999998705224924E-1
24 35 9.999999952380835E-1
24 42 9.999999989517321E-1
24 61 9.999999977248216E-1
24 96 4.9999999668305667E-1
24 114 4.999999964758794E-1
25 64 9.999999993795351E-1
25 77 9.999999961096581E-1
25 105 4.999999889463819E-1
25 108 9.99999993961428E-1
25 114 4.999999896962133E-1
26 18 4.999999333657031E-1
26 33 4.9999988915810445E-1
26 45 9.999999477387638E-1
26 49 9.999999889666498E-1
26 51 9.999999467136091E-1
26 97 9.999999766816615E-1
26 112 9.999999938400538E-1
26 116 4.9999991256537424E-1
27 15 9.999999985781272E-1
27 23 9.999999919305946E-1
27 34 9.999999924266703E-1
27 113 9.999999897042899E-1
27 118 4.999999921944041E-1
28 19 4.9999998234419707E-1
28 46 9.999999854864831E-1
28 48 9.999999957220367E-1
28 53 9.999999963737081E-1
28 68 9.999999977325945E-1
28 80 9.999999876291973E-1
29 16 9.999999992986229E-1
29 57 4.999999884197842E-1
29 72 4.999999819111866E-1
29 78 4.999999869476717E-1
29 86 9.999999992143686E-1
29 106 4.999999898648783E-1
30 1 9.999999971236557E-1
30 52 9.999999986052895E-1
30 54 4.999999979294875E-1
30 57 9.999999974801379E-1
30 75 9.999999990725861E-1
30 78 4.999999972812458E-1
30 106 4.9999999738469475E-1
30 115 9.999999988741488E-1
30 120 4.9999999636828857E-1
31 10 9.999999995519493E-1
31 20 4.999999747644748E-1
31 89 9.999999058405135E-1
31 99 4.9999996370563926E-1
31 105 4.9999994563305794E-1
32 39 9.999999625704827E-1
32 46 4.999999840338128E-1
32 62 4.999999859881961E-1
32 66 9.999999835903594E-1
32 92 4.9999997719810685E-1
32 100 4.9999998017758773E-1
33 18 4.9999991149149453E-1
33 26 4.9999988915810445E-1
33 49 4.999998576443298E-1
33 51 4.999999262419922E-1
33 112 4.999998716561169E-1
34 13 9.999999753048475E-1
34 15 9.999999940610778E-1
34 23 9.999999933744199E-1
34 27 9.999999924266703E-1
34 113 9.999999820219725E-1
35 20 4.999999853209459E-1
35 24 9.999999952380835E-1
35 42 9.999999940808557E-1
35 61 9.999999993367222E-1
35 96 9.999999983873225E-1
35 105 4.999999964986069E-1
35 114 9.999999997745919E-1
36 11 4.999999552683654E-1
36 65 9.999999763266856E-1
36 69 9.999999972981191E-1
36 88 9.999999813212304E-1
36 94 9.999999941716279E-1
36 95 4.9999997483047454E-1
37 54 9.999999978628934E-1
37 67 4.999999970256005E-1
37 75 4.999999984928299E-1
37 81 9.999999994387352E-1
37 115 4.999999976932018E-1
37 120 9.999999982037603E-1
38 84 9.999999816505634E-1
38 88 4.9999994983098023E-1
38 95 4.9999994064675635E-1
38 103 4.999999294496891E-1
38 110 9.999999494404653E-1
39 32 9.999999625704827E-1
39 46 4.9999995353218973E-1
39 66 9.99999984238378E-1
39 68 4.9999995220231236E-1
39 103 4.9999996443991657E-1
40 4 9.999999914661826E-1
40 14 9.999999928678164E-1
40 22 9.999999978008962E-1
40 41 4.9999999006911106E-1
40 63 4.999999837733646E-1
40 82 9.999999968356172E-1
40 85 9.9999999193907E-1
40 108 4.999999911316238E-1
41 5 9.999999756974327E-1
41 12 4.9999998549229474E-1
41 22 4.9999998637655746E-1
41 40 4.9999999006911106E-1
41 63 9.999999768912886E-1
41 82 9.999999894081476E-1
41 87 4.9999995568297856E-1
41 90 4.999999857288373E-1
41 99 4.9999996984374223E-1
42 20 4.9999999172033943E-1
42 24 9.999999989517321E-1
42 35 9.999999940808557E-1
42 61 9.999999958312997E-1
42 96 9.999999948026979E-1
42 114 4.999999959358423E-1
43 7 9.99999999443786E-1
43 17 4.9999999547522445E-1
43 59 9.99999999498461E-1
43 70 4.99999997395041E-1
43 98 9.999999969298776E-1
43 118 9.999999970906923E-1
43 119 9.999999988543538E-1
44 12 4.999998675284395E-1
44 87 4.999998755132833E-1
44 89 9.999998903146049E-1
44 90 4.999999245848098E-1
44 99 4.999998785307043E-1
45 26 9.999999477387638E-1
45 49 9.999999816483203E-1
45 62 4.999999772129612E-1
45 92 9.999999896623192E-1
45 100 4.99999977796091E-1
45 112 4.9999995592220586E-1
46 28 9.999999854864831E-1
46 32 4.999999840338128E-1
46 39 4.9999995353218973E-1
46 53 9.999999933769104E-1
46 62 9.999999954803337E-1
46 66 4.9999995605687714E-1
46 68 9.999999901416144E-1
46 92 4.999999839298006E-1
46 100 9.999999945077921E-1
47 13 9.999999872838063E-1
47 19 9.999999903436821E-1
47 76 9.999999803857248E-1
47 103 9.99999971141188E-1
47 111 9.999999872102048E-1
48 28 9.999999957220367E-1
48 53 9.999999958542695E-1
48 68 4.999999939811629E-1
48 71 9.999999888768911E-1
48 73 9.99999992945761E-1
48 80 9.999999964095828E-1
49 26 9.999999889666498E-1
49 33 4.999998576443298E-1
49 45 9.999999816483203E-1
49 51 4.9999994365757E-1
49 92 4.999999721508967E-1
49 97 9.999999489074537E-1
49 112 9.999999732751946E-1
50 6 4.9999997193148904E-1
50 83 4.9999995724830415E-1
50 87 9.99999924772767E-1
50 91 4.999999736049028E-1
50 104 9.999999988525251E-1
50 109 4.9999997830009635E-1
51 18 9.999999814117101E-1
51 26 9.999999467136091E-1
51 33 4.999999262419922E-1
51 49 4.9999994365757E-1
51 56 4.999999192023722E-1
51 93 4.9999990407859857E-1
51 97 9.99999955698596E-1
51 112 9.999999592868201E-1
52 1 9.999999969814012E-1
52 16 4.9999998649863403E-1
52 30 9.999999986052895E-1
52 54 4.999999977123052E-1
52 57 9.999999998258693E-1
52 75 9.999999984674188E-1
52 78 4.999999976240917E-1
52 106 4.9999999843452914E-1
52 115 9.99999999223255E-1
53 28 9.999999963737081E-1
53 46 9.999999933769104E-1
53 48 9.999999958542695E-1
53 62 4.9999999156955754E-1
53 68 9.999999940711294E-1
53 100 9.999999865902921E-1
54 30 4.999999979294875E-1
54 37 9.999999978628934E-1
54 52 4.999999977123052E-1
54 75 9.99999998804988E-1
54 81 4.9999999761052777E-1
54 115 9.999999983725606E-1
55 6 9.999999843122498E-1
55 9 9.999999980231605E-1
55 79 9.999999851977699E-1
55 91 9.999999911953941E-1
55 104 4.999999606150241E-1
55 109 9.999999910289523E-1
56 51 4.999999192023722E-1
56 93 9.999999450165529E-1
56 97 9.999999282993451E-1
56 112 4.999999415423436E-1
56 116 9.999999974747156E-1
57 1 4.9999999796507844E-1
57 16 4.9999998834363857E-1
57 29 4.999999884197842E-1
57 30 9.999999974801379E-1
57 52 9.999999998258693E-1
57 75 9.999999978094128E-1
57 78 4.999999971795351E-1
57 106 9.999999965529888E-1
57 115 9.999999988596784E-1
58 3 4.999999725723059E-1
58 8 9.999999837291048E-1
58 21 4.999999413377363E-1
58 60 4.9999992715497216E-1
58 80 4.9999991014426126E-1
59 7 9.999999979306989E-1
59 43 9.99999999498461E-1
59 70 9.999999975011129E-1
59 98 9.999999977565567E-1
59 118 4.9999999708904047E-1
59 119 9.999999998603903E-1
60 3 4.9999998909215826E-1
60 8 4.999999431293557E-1
60 21 9.999999959596783E-1
60 58 4.9999992715497216E-1
60 71 9.999999963943715E-1
60 73 9.999999934817418E-1
60 80 9.999999922500267E-1
60 117 9.999999934366376E-1
61 24 9.999999977248216E-1
61 35 9.999999993367222E-1
61 42 9.999999958312997E-1
61 96 9.999999966810995E-1
61 105 4.9999999407901896E-1
61 114 9.999999983925338E-1
62 32 4.999999859881961E-1
62 45 4.999999772129612E-1
62 46 9.999999954803337E-1
62 53 4.9999999156955754E-1
62 66 4.9999995655667157E-1
62 68 4.9999998622292147E-1
62 92 9.999999873925223E-1
62 100 9.999999989935902E-1
63 40 4.999999837733646E-1
63 41 9.999999768912886E-1
63 82 4.999999816186581E-1
63 90 9.99999974318784E-1
63 99 9.99999990330626E-1
64 25 9.999999993795351E-1
64 77 9.999999971316037E-1
64 105 4.9999999144570717E-1
64 108 9.999999969200674E-1
64 114 4.999999906588386E-1
65 36 9.999999763266856E-1
65 69 9.999999869823682E-1
65 83 4.9999988691495173E-1
65 88 4.9999996500625243E-1
65 94 9.999999495289836E-1
65 102 9.999999707025838E-1
66 32 9.999999835903594E-1
66 39 9.99999984238378E-1
66 46 4.9999995605687714E-1
66 62 4.9999995655667157E-1
66 100 4.9999994674618325E-1
67 4 4.9999999469286444E-1
67 14 9.999999920354299E-1
67 37 4.999999970256005E-1
67 81 9.999999970343237E-1
67 120 9.9999999615839E-1
68 28 9.999999977325945E-1
68 39 4.9999995220231236E-1
68 46 9.999999901416144E-1
68 48 4.999999939811629E-1
68 53 9.999999940711294E-1
68 62 4.9999998622292147E-1
68 80 4.9999998738786783E-1
68 100 4.999999862682741E-1
69 36 9.999999972981191E-1
69 65 9.999999869823682E-1
69 84 4.999999250614521E-1
69 88 9.999999767145124E-1
69 94 9.999999835853051E-1
69 95 4.999999679413481E-1
69 102 4.999999645429626E-1
70 7 4.9999999544211476E-1
70 43 4.99999997395041E-1
70 59 9.999999975011129E-1
70 98 9.999999967311833E-1
70 119 9.99999998415011E-1
71 3 4.999999803113285E-1
71 21 4.9999999244976795E-1
71 48 9.999999888768911E-1
71 60 9.999999963943715E-1
71 73 9.999999994333968E-1
71 80 9.99999997675785E-1
71 117 9.999999957259298E-1
72 29 4.999999819111866E-1
72 74 9.999999941546185E-1
72 86 9.999999726529073E-1
72 101 4.999999803600799E-1
72 107 9.99999963215677E-1
72 121 9.999999999134878E-1
73 21 4.999999895947133E-1
73 48 9.99999992945761E-1
73 60 9.999999934817418E-1
73 71 9.999999994333968E-1
73 80 9.999999989462495E-1
73 117 9.999999929778824E-1
74 2 9.99999948862598E-1
74 72 9.999999941546185E-1
74 101 9.999999851797328E-1
74 107 9.999999853720933E-1
74 121 9.999999947459682E-1
75 30 9.999999990725861E-1
75 37 4.999999984928299E-1
75 52 9.999999984674188E-1
75 54 9.99999998804988E-1
75 57 9.999999978094128E-1
75 81 4.9999999699442993E-1
75 115 9.999999998168712E-1
75 120 4.999999964246137E-1
76 13 9.999999927706705E-1
76 47 9.999999803857248E-1
76 88 4.999999724631458E-1
76 95 9.999999836946605E-1
76 103 4.9999997661188444E-1
76 110 9.999999559175612E-1
76 111 9.999999990887428E-1
77 25 9.999999961096581E-1
77 64 9.999999971316037E-1
77 105 9.999999916983074E-1
77 108 9.999999916719222E-1
77 114 9.99999993077321E-1
78 1 9.999999995766612E-1
78 9 4.9999999124511524E-1
78 29 4.999999869476717E-1
78 30 4.999999972812458E-1
78 52 4.999999976240917E-1
78 57 4.999999971795351E-1
78 79 4.9999998754860636E-1
78 106 9.999999994693931E-1
79 6 9.999999827637419E-1
79 9 4.9999998783628047E-1
79 55 9.999999851977699E-1
79 78 4.9999998754860636E-1
79 102 4.999999772458386E-1
79 106 4.999999867809878E-1
79 109 4.9999998640791815E-1
80 3 4.9999998065013784E-1
80 8 4.9999993727200587E-1
80 28 9.999999876291973E-1
80 48 9.999999964095828E-1
80 58 4.9999991014426126E-1
80 60 9.999999922500267E-1
80 68 4.9999998738786783E-1
80 71 9.99999997675785E-1
80 73 9.999999989462495E-1
81 37 9.999999994387352E-1
81 54 4.9999999761052777E-1
81 67 9.999999970343237E-1
81 75 4.9999999699442993E-1
81 120 9.999999991978291E-1
82 4 4.999999950555897E-1
82 5 4.999999895412604E-1
82 12 4.9999997057179046E-1
82 22 9.999999960243074E-1
82 40 9.999999968356172E-1
82 41 9.999999894081476E-1
82 63 4.999999816186581E-1
82 85 9.999999931639755E-1
82 90 4.999999646434463E-1
83 50 4.9999995724830415E-1
83 65 4.9999988691495173E-1
83 84 9.999998727006114E-1
83 87 4.9999992101147567E-1
83 104 4.999999509682604E-1
84 38 9.999999816505634E-1
84 69 4.999999250614521E-1
84 83 9.999998727006114E-1
84 88 4.9999993633405293E-1
84 110 4.999999377429452E-1
85 4 9.99999999372045E-1
85 5 4.999999873274136E-1
85 14 9.999999979660874E-1
85 22 9.999999980194709E-1
85 40 9.9999999193907E-1
85 82 9.999999931639755E-1
86 16 9.999999991438414E-1
86 29 9.999999992143686E-1
86 72 9.999999726529073E-1
86 106 4.9999998550611185E-1
86 121 9.999999702355741E-1
87 5 4.999999640081138E-1
87 12 9.999999834346249E-1
87 41 4.9999995568297856E-1
87 44 4.999998755132833E-1
87 50 9.99999924772767E-1
87 83 4.9999992101147567E-1
87 104 4.999999541276176E-1
88 36 9.999999813212304E-1
88 38 4.9999994983098023E-1
88 65 4.9999996500625243E-1
88 69 9.999999767145124E-1
88 76 4.999999724631458E-1
88 84 4.9999993633405293E-1
88 94 9.999999806399765E-1
88 95 9.999999883709274E-1
89 10 4.9999994816771554E-1
89 31 9.999999058405135E-1
89 44 9.999998903146049E-1
89 90 4.999999222865345E-1
89 99 4.9999993924992575E-1
90 12 9.999999509934684E-1
90 41 4.999999857288373E-1
90 44 4.999999245848098E-1
90 63 9.99999974318784E-1
90 82 4.999999646434463E-1
90 89 4.999999222865345E-1
90 99 9.999999637540321E-1
91 5 9.999999785679683E-1
91 6 9.999999771045655E-1
91 9 9.99999991317647E-1
91 50 4.999999736049028E-1
91 55 9.999999911953941E-1
91 104 4.999999756876219E-1
91 109 9.99999993212521E-1
92 32 4.9999997719810685E-1
92 45 9.999999896623192E-1
92 46 4.999999839298006E-1
92 49 4.999999721508967E-1
92 62 9.999999873925223E-1
92 100 9.999999870801963E-1
93 18 9.999998537133221E-1
93 51 4.9999990407859857E-1
93 56 9.999999450165529E-1
93 97 4.9999991408426403E-1
93 116 9.99999920492872E-1
94 11 4.9999996913650474E-1
94 36 9.999999941716279E-1
94 65 9.999999495289836E-1
94 69 9.999999835853051E-1
94 88 9.999999806399765E-1
94 95 9.99999963445776E-1
95 13 9.999999630358832E-1
95 36 4.9999997483047454E-1
95 38 4.9999994064675635E-1
95 69 4.999999679413481E-1
95 76 9.999999836946605E-1
95 88 9.999999883709274E-1
95 94 9.99999963445776E-1
95 110 4.9999997297053267E-1
95 111 9.999999758327017E-1
96 10 4.999999496041445E-1
96 20 4.999999908467982E-1
96 24 4.9999999668305667E-1
96 35 9.999999983873225E-1
96 42 9.999999948026979E-1
96 61 9.999999966810995E-1
96 105 9.999999961060543E-1
96 114 9.999999983428657E-1
97 18 4.9999995124491314E-1
97 26 9.999999766816615E-1
97 49 9.999999489074537E-1
97 51 9.99999955698596E-1
97 56 9.999999282993451E-1
97 93 4.9999991408426403E-1
97 112 9.999999944373147E-1
97 116 4.999999628986756E-1
98 7 4.9999999719908245E-1
98 17 9.999999949806068E-1
98 43 9.999999969298776E-1
98 59 9.999999977565567E-1
98 70 9.999999967311833E-1
98 117 4.9999999527643924E-1
98 118 4.9999999525462324E-1
98 119 9.999999974463337E-1
99 10 4.999999663257456E-1
99 31 4.9999996370563926E-1
99 41 4.9999996984374223E-1
99 44 4.999998785307043E-1
99 63 9.99999990330626E-1
99 89 4.9999993924992575E-1
99 90 9.999999637540321E-1
99 105 4.999999690103654E-1
99 108 4.999999679774497E-1
100 32 4.9999998017758773E-1
100 45 4.99999977796091E-1
100 46 9.999999945077921E-1
100 53 9.999999865902921E-1
100 62 9.999999989935902E-1
100 66 4.9999994674618325E-1
100 68 4.999999862682741E-1
100 92 9.999999870801963E-1
101 2 9.999999881314657E-1
101 11 4.999999742345148E-1
101 72 4.999999803600799E-1
101 74 9.999999851797328E-1
101 107 9.999999966565146E-1
101 121 9.999999624100375E-1
102 6 4.999999857545836E-1
102 65 9.999999707025838E-1
102 69 4.999999645429626E-1
102 79 4.999999772458386E-1
102 109 4.9999997162901655E-1
103 19 9.999999642575718E-1
103 38 4.999999294496891E-1
103 39 4.9999996443991657E-1
103 47 9.99999971141188E-1
103 76 4.9999997661188444E-1
103 110 9.999999753007499E-1
103 111 9.999999638516773E-1
104 6 4.999999781458442E-1
104 50 9.999999988525251E-1
104 55 4.999999606150241E-1
104 83 4.999999509682604E-1
104 87 4.999999541276176E-1
104 91 4.999999756876219E-1
104 109 4.999999823473932E-1
105 10 4.999999522291666E-1
105 20 4.99999987096296E-1
105 25 4.999999889463819E-1
105 31 4.9999994563305794E-1
105 35 4.999999964986069E-1
105 61 4.9999999407901896E-1
105 64 4.9999999144570717E-1
105 77 9.999999916983074E-1
105 96 9.999999961060543E-1
105 99 4.999999690103654E-1
105 108 4.9999999116132043E-1
105 114 9.999999948047487E-1
106 1 9.999999990813301E-1
106 16 4.9999998830072356E-1
106 29 4.999999898648783E-1
106 30 4.9999999738469475E-1
106 52 4.9999999843452914E-1
106 57 9.999999965529888E-1
106 78 9.999999994693931E-1
106 79 4.999999867809878E-1
106 86 4.9999998550611185E-1
107 2 9.99999977141504E-1
107 11 4.999999623043133E-1
107 72 9.99999963215677E-1
107 74 9.999999853720933E-1
107 101 9.999999966565146E-1
107 121 9.999999656849785E-1
108 25 9.99999993961428E-1
108 40 4.999999911316238E-1
108 64 9.999999969200674E-1
108 77 9.999999916719222E-1
108 99 4.999999679774497E-1
108 105 4.9999999116132043E-1
109 6 9.99999994944306E-1
109 9 9.999999839545687E-1
109 50 4.9999997830009635E-1
109 55 9.999999910289523E-1
109 79 4.9999998640791815E-1
109 91 9.99999993212521E-1
109 102 4.9999997162901655E-1
109 104 4.999999823473932E-1
110 38 9.999999494404653E-1
110 76 9.999999559175612E-1
110 84 4.999999377429452E-1
110 95 4.9999997297053267E-1
110 103 9.999999753007499E-1
110 111 4.9999997955117426E-1
111 13 9.999999929768582E-1
111 47 9.999999872102048E-1
111 76 9.999999990887428E-1
111 95 9.999999758327017E-1
111 103 9.999999638516773E-1
111 110 4.9999997955117426E-1
112 18 4.9999994706871326E-1
112 26 9.999999938400538E-1
112 33 4.999998716561169E-1
112 45 4.9999995592220586E-1
112 49 9.999999732751946E-1
112 51 9.999999592868201E-1
112 56 4.999999415423436E-1
112 97 9.999999944373147E-1
112 116 4.9999994074569104E-1
113 15 9.999999950321622E-1
113 23 9.999999964621261E-1
113 27 9.999999897042899E-1
113 34 9.999999820219725E-1
113 118 4.999999752953003E-1
114 24 4.999999964758794E-1
114 25 4.999999896962133E-1
114 35 9.999999997745919E-1
114 42 4.999999959358423E-1
114 61 9.999999983925338E-1
114 64 4.999999906588386E-1
114 77 9.99999993077321E-1
114 96 9.999999983428657E-1
114 105 9.999999948047487E-1
115 30 9.999999988741488E-1
115 37 4.999999976932018E-1
115 52 9.99999999223255E-1
115 54 9.999999983725606E-1
115 57 9.999999988596784E-1
115 75 9.999999998168712E-1
116 26 4.9999991256537424E-1
116 56 9.999999974747156E-1
116 93 9.99999920492872E-1
116 97 4.999999628986756E-1
116 112 4.9999994074569104E-1
117 17 9.999999896423424E-1
117 19 4.999999817943284E-1
117 21 4.999999925334101E-1
117 60 9.999999934366376E-1
117 71 9.999999957259298E-1
117 73 9.999999929778824E-1
117 98 4.9999999527643924E-1
118 7 9.999999990121788E-1
118 15 4.9999998679846647E-1
118 17 4.999999950597053E-1
118 23 4.9999997724755413E-1
118 27 4.999999921944041E-1
118 43 9.999999970906923E-1
118 59 4.9999999708904047E-1
118 98 4.9999999525462324E-1
118 113 4.999999752953003E-1
118 119 4.9999999617281615E-1
119 7 9.999999968263417E-1
119 43 9.999999988543538E-1
119 59 9.999999998603903E-1
119 70 9.99999998415011E-1
119 98 9.999999974463337E-1
119 118 4.9999999617281615E-1
120 4 4.999999958184059E-1
120 30 4.9999999636828857E-1
120 37 9.999999982037603E-1
120 67 9.9999999615839E-1
120 75 4.999999964246137E-1
120 81 9.999999991978291E-1
121 2 4.9999995544778564E-1
121 72 9.999999999134878E-1
121 74 9.999999947459682E-1
121 86 9.999999702355741E-1
121 101 9.999999624100375E-1
121 107 9.999999656849785E-1
