%%MatrixMarket matrix coordinate real general
%
121 121 1382
1 9 4.9999999010894386E-1
1 16 4.999999833871581E-1
1 29 4.999999851195283E-1
1 30 9.999999971236557E-1
1 37 4.9999999242148896E-1
1 52 9.999999969814012E-1
1 54 9.999999869896143E-1
1 55 4.99999987223296E-1
1 57 9.999999959301569E-1
1 75 9.999999936408962E-1
1 78 9.999999995766612E-1
1 79 4.9999998410672386E-1
1 106 9.999999990813301E-1
1 115 9.999999943254151E-1
2 11 9.999999845851593E-1
2 36 4.9999992367363033E-1
2 72 9.999999089869579E-1
2 74 9.99999948862598E-1
2 94 4.999999371013595E-1
2 101 9.999999881314657E-1
2 102 4.9999992827911866E-1
2 107 9.99999977141504E-1
2 121 9.999999108955713E-1
3 8 9.999999598499443E-1
3 21 9.999999860752602E-1
3 48 4.9999997285048153E-1
3 58 9.999999451446118E-1
3 60 9.999999781843165E-1
3 71 4.999999803113285E-1
3 73 4.9999997782480626E-1
3 80 4.9999998065013784E-1
3 117 4.9999997423055276E-1
4 5 4.999999830905924E-1
4 14 9.999999994689612E-1
4 22 9.999999978952014E-1
4 37 4.9999999105730614E-1
4 40 9.999999914661826E-1
4 41 4.999999796249136E-1
4 67 9.999999893857289E-1
4 81 9.999999866768395E-1
4 82 9.999999901111793E-1
4 85 9.99999999372045E-1
4 120 9.999999916368117E-1
5 4 4.999999830905924E-1
5 9 9.999999721734608E-1
5 12 9.99999973938676E-1
5 22 4.9999998350804287E-1
5 40 4.999999802133627E-1
5 41 9.999999756974327E-1
5 55 4.999999795818713E-1
5 82 9.999999790825208E-1
5 85 4.999999873274136E-1
5 87 4.999999640081138E-1
5 90 4.999999532324702E-1
5 91 9.999999785679683E-1
5 109 4.9999997384218636E-1
6 9 9.999999717711654E-1
6 50 9.999999438629781E-1
6 55 9.999999843122498E-1
6 65 4.999999562119388E-1
6 78 4.999999682974442E-1
6 79 9.999999827637419E-1
6 91 9.999999771045655E-1
6 102 9.999999715091672E-1
6 104 9.999999562916884E-1
6 109 9.99999994944306E-1
7 15 4.9999998294984366E-1
7 17 9.999999902813689E-1
7 23 4.999999719870317E-1
7 27 9.999999783886371E-1
7 34 4.9999997878762936E-1
7 43 9.99999999443786E-1
7 47 4.999999665331931E-1
7 59 9.999999979306989E-1
7 70 9.999999908842295E-1
7 98 9.999999943981649E-1
7 113 4.999999713300966E-1
7 117 4.999999857420321E-1
7 118 9.999999990121788E-1
7 119 9.999999968263417E-1
8 3 9.999999598499443E-1
8 21 4.999999493877706E-1
8 45 4.999999356516996E-1
8 48 4.999999341899848E-1
8 49 9.999998682649843E-1
8 56 4.9999983703696255E-1
8 58 9.999999837291048E-1
8 60 4.999999431293557E-1
8 80 4.9999993727200587E-1
8 100 4.999999328199314E-1
8 116 4.9999985928371377E-1
9 1 4.9999999010894386E-1
9 5 9.999999721734608E-1
9 6 9.999999717711654E-1
9 50 4.999999495785824E-1
9 55 9.999999980231605E-1
9 78 9.999999824902305E-1
9 79 9.999999756725609E-1
9 91 9.99999991317647E-1
9 104 4.999999538182387E-1
9 106 4.9999998807630736E-1
9 109 9.999999839545687E-1
10 20 9.999999583283001E-1
10 31 9.999999995519493E-1
10 42 4.999999450806519E-1
10 44 4.9999981378159736E-1
10 63 4.99999939000686E-1
10 89 9.999998963354311E-1
10 96 4.999999496041445E-1
10 99 9.999999326514912E-1
10 105 4.999999522291666E-1
10 114 4.9999993644038937E-1
11 2 9.999999845851593E-1
11 23 4.99999932844924E-1
11 36 9.999999105367308E-1
11 69 9.999998827178505E-1
11 74 4.999999447121234E-1
11 94 9.999999382730095E-1
11 101 9.999999484690296E-1
11 102 4.9999992925772924E-1
11 107 9.999999246086266E-1
12 5 9.99999973938676E-1
12 22 4.9999995456743834E-1
12 40 4.999999563579463E-1
12 41 9.999999709845895E-1
12 44 4.999998675284395E-1
12 50 4.999999486738794E-1
12 82 4.9999997057179046E-1
12 83 4.9999987021666725E-1
12 85 4.9999995585693874E-1
12 87 9.999999834346249E-1
12 90 9.999999509934684E-1
12 91 4.9999996721657586E-1
13 15 9.999999466612197E-1
13 19 9.999999585448809E-1
13 23 9.999999443938514E-1
13 27 4.99999974372486E-1
13 34 9.999999753048475E-1
13 47 9.999999872838063E-1
13 76 9.999999927706705E-1
13 88 4.9999995532067365E-1
13 95 9.999999630358832E-1
13 103 4.999999681344865E-1
13 110 4.9999995911085426E-1
13 111 9.999999929768582E-1
14 4 9.999999994689612E-1
14 22 9.999999981444502E-1
14 37 4.999999911661361E-1
14 40 9.999999928678164E-1
14 67 9.999999920354299E-1
14 81 9.999999874250111E-1
14 82 9.999999890330955E-1
14 85 9.999999979660874E-1
14 108 4.9999998642311294E-1
14 120 9.999999915095747E-1
15 7 4.9999998294984366E-1
15 13 9.999999466612197E-1
15 23 9.999999972258368E-1
15 27 9.999999985781272E-1
15 34 9.999999940610778E-1
15 43 4.999999785447594E-1
15 59 4.9999997441606553E-1
15 113 9.999999950321622E-1
15 118 9.999999735969329E-1
16 1 4.999999833871581E-1
16 29 9.999999992986229E-1
16 52 4.9999998649863403E-1
16 57 4.9999998834363857E-1
16 72 9.999999630419412E-1
16 74 4.999999645481875E-1
16 78 4.9999998488494396E-1
16 86 9.999999991438414E-1
16 106 4.9999998830072356E-1
16 107 4.999999262579801E-1
16 115 4.999999830502458E-1
16 121 4.999999802014479E-1
17 7 9.999999902813689E-1
17 19 9.999999786778281E-1
17 43 9.999999909504489E-1
17 47 4.999999804165999E-1
17 59 9.999999893243479E-1
17 70 9.999999836235193E-1
17 71 4.999999875548126E-1
17 73 4.999999859723721E-1
17 98 9.999999949806068E-1
17 117 9.999999896423424E-1
17 118 9.999999901194107E-1
17 119 9.999999874595992E-1
18 26 9.999998667314062E-1
18 33 9.999998229829891E-1
18 49 4.999998895049587E-1
18 51 9.999999814117101E-1
18 56 9.999998206394554E-1
18 93 9.999998537133221E-1
18 97 9.999999024898263E-1
18 112 9.999998941374265E-1
18 116 9.99999786812853E-1
19 13 9.999999585448809E-1
19 17 9.999999786778281E-1
19 28 4.9999998234419707E-1
19 47 9.999999903436821E-1
19 68 4.999999808620801E-1
19 71 4.9999997935924E-1
19 73 4.999999811479513E-1
19 76 4.999999716993979E-1
19 103 9.999999642575718E-1
19 110 4.99999947782252E-1
19 111 4.999999779483429E-1
19 117 4.999999817943284E-1
20 10 9.999999583283001E-1
20 24 9.999999741044985E-1
20 31 9.999999495289495E-1
20 35 4.999999853209459E-1
20 42 9.999999834406789E-1
20 61 4.999999844328253E-1
20 89 4.9999986940341623E-1
20 96 9.999999816935964E-1
20 105 4.99999987096296E-1
20 114 4.999999845683424E-1
21 3 9.999999860752602E-1
21 8 4.999999493877706E-1
21 58 4.999999413377363E-1
21 60 9.999999959596783E-1
21 70 9.999999748336813E-1
21 71 9.999999848995359E-1
21 73 9.999999791894266E-1
21 80 9.999999776208705E-1
21 98 4.9999998517471905E-1
21 117 9.999999850668202E-1
21 119 9.999999619450505E-1
22 4 9.999999978952014E-1
22 5 4.9999998350804287E-1
22 12 4.9999995456743834E-1
22 14 9.999999981444502E-1
22 40 9.999999978008962E-1
22 41 4.9999998637655746E-1
22 63 4.999999744108262E-1
22 67 9.999999830943223E-1
22 81 4.999999879785748E-1
22 82 9.999999960243074E-1
22 85 9.999999980194709E-1
22 90 4.9999994781737955E-1
22 108 9.999999747603947E-1
22 120 4.9999999103283044E-1
23 7 4.999999719870317E-1
23 11 4.99999932844924E-1
23 13 9.999999443938514E-1
23 15 9.999999972258368E-1
23 27 9.999999919305946E-1
23 34 9.999999933744199E-1
23 43 4.999999663535164E-1
23 59 4.9999996115822537E-1
23 113 9.999999964621261E-1
23 118 4.9999997724755413E-1
24 20 9.999999741044985E-1
24 35 9.999999952380835E-1
24 42 9.999999989517321E-1
24 61 9.999999977248216E-1
24 64 4.999999764945684E-1
24 77 9.999999732204913E-1
24 96 9.999999933661133E-1
24 105 9.999999796451925E-1
24 114 9.999999929517588E-1
25 35 9.99999975710239E-1
25 61 9.999999704462751E-1
25 64 9.999999993795351E-1
25 67 4.999999886916798E-1
25 77 9.999999961096581E-1
25 96 4.999999844280865E-1
25 105 4.999999889463819E-1
25 108 9.99999993961428E-1
25 114 9.999999793924266E-1
26 18 9.999998667314062E-1
26 33 4.9999988915810445E-1
26 45 9.999999477387638E-1
26 49 9.999999889666498E-1
26 51 9.999999467136091E-1
26 56 9.999998246979264E-1
26 92 4.9999994552918E-1
26 93 4.9999984328473557E-1
26 97 9.999999766816615E-1
26 112 9.999999938400538E-1
26 116 9.999998251307485E-1
27 7 9.999999783886371E-1
27 13 4.99999974372486E-1
27 15 9.999999985781272E-1
27 23 9.999999919305946E-1
27 34 9.999999924266703E-1
27 43 9.999999712351387E-1
27 59 9.999999643071177E-1
27 113 9.999999897042899E-1
27 118 9.999999843888082E-1
27 119 4.999999805382116E-1
28 19 4.9999998234419707E-1
28 32 4.9999995974761596E-1
28 39 4.9999993636442525E-1
28 46 9.999999854864831E-1
28 48 9.999999957220367E-1
28 53 9.999999963737081E-1
28 62 9.999999671921256E-1
28 68 9.999999977325945E-1
28 71 9.999999790647821E-1
28 73 9.999999853827704E-1
28 80 9.999999876291973E-1
28 100 9.999999702929634E-1
28 103 4.999999606911381E-1
29 1 4.999999851195283E-1
29 16 9.999999992986229E-1
29 52 4.9999998677676416E-1
29 57 4.999999884197842E-1
29 72 4.999999819111866E-1
29 74 4.999999658083239E-1
29 78 4.999999869476717E-1
29 79 9.999999691501872E-1
29 86 9.999999992143686E-1
29 101 4.9999992801095894E-1
29 106 4.999999898648783E-1
29 107 4.999999273686396E-1
29 115 4.999999828562391E-1
29 121 4.9999998044655836E-1
30 1 9.999999971236557E-1
30 37 9.99999995104598E-1
30 52 9.999999986052895E-1
30 54 9.99999995858975E-1
30 57 9.999999974801379E-1
30 75 9.999999990725861E-1
30 78 9.999999945624916E-1
30 81 4.999999961042485E-1
30 106 9.999999947693895E-1
30 115 9.999999988741488E-1
30 120 4.9999999636828857E-1
31 10 9.999999995519493E-1
31 20 9.999999495289495E-1
31 42 4.9999993796410774E-1
31 44 4.999998191629191E-1
31 63 4.999999346954064E-1
31 89 9.999999058405135E-1
31 96 4.999999426632834E-1
31 99 9.999999274112785E-1
31 105 4.9999994563305794E-1
31 114 4.999999286855179E-1
32 28 4.9999995974761596E-1
32 39 9.999999625704827E-1
32 45 4.999999562349334E-1
32 46 9.999999680676256E-1
32 53 4.999999664452208E-1
32 62 9.999999719763922E-1
32 66 9.999999835903594E-1
32 68 4.9999997028766247E-1
32 92 9.999999543962137E-1
32 100 9.999999603551755E-1
33 18 9.999998229829891E-1
33 26 4.9999988915810445E-1
33 45 4.9999984235682177E-1
33 49 4.999998576443298E-1
33 51 9.999998524839844E-1
33 66 4.999998016076219E-1
33 92 4.999998085500616E-1
33 97 4.9999984504714173E-1
33 112 4.999998716561169E-1
34 7 4.9999997878762936E-1
34 13 9.999999753048475E-1
34 15 9.999999940610778E-1
34 23 9.999999933744199E-1
34 27 9.999999924266703E-1
34 43 4.999999736596992E-1
34 47 9.999999450358692E-1
34 76 4.999999723174437E-1
34 111 4.9999997110310734E-1
34 113 9.999999820219725E-1
34 118 4.999999843894583E-1
35 20 4.999999853209459E-1
35 24 9.999999952380835E-1
35 25 9.99999975710239E-1
35 42 9.999999940808557E-1
35 61 9.999999993367222E-1
35 64 9.999999774314436E-1
35 77 9.999999906546351E-1
35 96 9.999999983873225E-1
35 105 9.999999929972138E-1
35 114 9.999999997745919E-1
36 2 4.9999992367363033E-1
36 11 9.999999105367308E-1
36 38 4.9999991178901837E-1
36 65 9.999999763266856E-1
36 69 9.999999972981191E-1
36 76 4.999999392445905E-1
36 84 4.999999108446468E-1
36 88 9.999999813212304E-1
36 94 9.999999941716279E-1
36 95 9.999999496609491E-1
36 102 9.999999186836717E-1
36 111 4.9999992862184284E-1
37 1 4.9999999242148896E-1
37 4 4.9999999105730614E-1
37 14 4.999999911661361E-1
37 30 9.99999995104598E-1
37 52 9.999999912192492E-1
37 54 9.999999978628934E-1
37 57 9.999999896712912E-1
37 67 9.99999994051201E-1
37 75 9.999999969856598E-1
37 81 9.999999994387352E-1
37 85 4.999999882634872E-1
37 106 4.999999899844886E-1
37 115 9.999999953864036E-1
37 120 9.999999982037603E-1
38 36 4.9999991178901837E-1
38 69 4.999999202369815E-1
38 76 4.9999992183551745E-1
38 83 4.9999987895970904E-1
38 84 9.999999816505634E-1
38 88 4.9999994983098023E-1
38 95 4.9999994064675635E-1
38 103 4.999999294496891E-1
38 110 9.999999494404653E-1
38 111 4.999999199977382E-1
39 28 4.9999993636442525E-1
39 32 9.999999625704827E-1
39 46 4.9999995353218973E-1
39 62 4.999999455918952E-1
39 66 9.99999984238378E-1
39 68 4.9999995220231236E-1
39 100 4.999999358349374E-1
39 103 9.999999288798331E-1
39 110 4.999999454674897E-1
40 4 9.999999914661826E-1
40 5 4.999999802133627E-1
40 12 4.999999563579463E-1
40 14 9.999999928678164E-1
40 22 9.999999978008962E-1
40 41 9.999999801382221E-1
40 63 4.999999837733646E-1
40 64 4.99999985028493E-1
40 67 4.99999987023517E-1
40 82 9.999999968356172E-1
40 85 9.9999999193907E-1
40 90 4.9999995883897624E-1
40 99 4.999999630707911E-1
40 108 9.999999822632476E-1
41 4 4.999999796249136E-1
41 5 9.999999756974327E-1
41 12 9.999999709845895E-1
41 22 4.9999998637655746E-1
41 40 9.999999801382221E-1
41 44 4.999998479851324E-1
41 63 9.999999768912886E-1
41 82 9.999999894081476E-1
41 85 4.999999832793924E-1
41 87 4.9999995568297856E-1
41 89 4.9999985144450804E-1
41 90 9.999999714576746E-1
41 99 4.9999996984374223E-1
42 10 4.999999450806519E-1
42 20 9.999999834406789E-1
42 24 9.999999989517321E-1
42 31 4.9999993796410774E-1
42 35 9.999999940808557E-1
42 61 9.999999958312997E-1
42 64 4.9999997427338166E-1
42 77 4.99999984980248E-1
42 96 9.999999948026979E-1
42 105 9.999999820106805E-1
42 114 9.999999918716846E-1
43 7 9.99999999443786E-1
43 15 4.999999785447594E-1
43 17 9.999999909504489E-1
43 23 4.999999663535164E-1
43 27 9.999999712351387E-1
43 34 4.999999736596992E-1
43 59 9.99999999498461E-1
43 70 9.99999994790082E-1
43 98 9.999999969298776E-1
43 113 4.9999996619753145E-1
43 117 4.9999998844322563E-1
43 118 9.999999970906923E-1
43 119 9.999999988543538E-1
44 10 4.9999981378159736E-1
44 12 4.999998675284395E-1
44 31 4.999998191629191E-1
44 41 4.999998479851324E-1
44 63 4.999998618575579E-1
44 87 4.999998755132833E-1
44 89 9.999998903146049E-1
44 90 4.999999245848098E-1
44 99 4.999998785307043E-1
45 8 4.999999356516996E-1
45 26 9.999999477387638E-1
45 32 4.999999562349334E-1
45 33 4.9999984235682177E-1
45 46 4.999999608057035E-1
45 49 9.999999816483203E-1
45 53 4.9999994817771654E-1
45 62 9.999999544259224E-1
45 92 9.999999896623192E-1
45 93 4.9999969899474034E-1
45 97 4.9999993466512116E-1
45 100 9.99999955592182E-1
45 112 9.999999118444117E-1
46 28 9.999999854864831E-1
46 32 9.999999680676256E-1
46 39 4.9999995353218973E-1
46 45 4.999999608057035E-1
46 48 9.999999787527618E-1
46 53 9.999999933769104E-1
46 62 9.999999954803337E-1
46 66 4.9999995605687714E-1
46 68 9.999999901416144E-1
46 80 4.999999788470234E-1
46 92 9.999999678596012E-1
46 100 9.999999945077921E-1
47 7 4.999999665331931E-1
47 13 9.999999872838063E-1
47 17 4.999999804165999E-1
47 19 9.999999903436821E-1
47 34 9.999999450358692E-1
47 76 9.999999803857248E-1
47 95 4.9999996416577525E-1
47 103 9.99999971141188E-1
47 110 4.9999996561005317E-1
47 111 9.999999872102048E-1
47 118 4.9999997230120813E-1
48 3 4.9999997285048153E-1
48 8 4.999999341899848E-1
48 28 9.999999957220367E-1
48 46 9.999999787527618E-1
48 53 9.999999958542695E-1
48 58 4.999998999450501E-1
48 60 9.999999784554454E-1
48 62 4.9999998193190787E-1
48 68 9.999999879623258E-1
48 71 9.999999888768911E-1
48 73 9.99999992945761E-1
48 80 9.999999964095828E-1
48 92 4.999999609733036E-1
48 100 4.999999853889492E-1
48 117 4.9999998595005235E-1
49 8 9.999998682649843E-1
49 18 4.999998895049587E-1
49 26 9.999999889666498E-1
49 33 4.999998576443298E-1
49 45 9.999999816483203E-1
49 51 9.9999988731514E-1
49 56 4.999998886202101E-1
49 62 4.999999401511551E-1
49 92 9.999999443017934E-1
49 93 4.9999979492699814E-1
49 97 9.999999489074537E-1
49 100 4.99999942523111E-1
49 112 9.999999732751946E-1
49 116 4.99999893783014E-1
50 6 9.999999438629781E-1
50 9 4.999999495785824E-1
50 12 4.999999486738794E-1
50 55 4.999999555340412E-1
50 65 4.9999994360865774E-1
50 83 9.999999144966083E-1
50 87 9.99999924772767E-1
50 91 9.999999472098056E-1
50 104 9.999999988525251E-1
50 109 9.999999566001927E-1
51 18 9.999999814117101E-1
51 26 9.999999467136091E-1
51 33 9.999998524839844E-1
51 49 9.9999988731514E-1
51 56 9.999998384047444E-1
51 93 9.999998081571971E-1
51 97 9.99999955698596E-1
51 112 9.999999592868201E-1
51 116 9.999998165638041E-1
52 1 9.999999969814012E-1
52 16 4.9999998649863403E-1
52 29 4.9999998677676416E-1
52 30 9.999999986052895E-1
52 37 9.999999912192492E-1
52 54 9.999999954246104E-1
52 57 9.999999998258693E-1
52 75 9.999999984674188E-1
52 78 9.999999952481834E-1
52 86 4.999999822909502E-1
52 106 9.999999968690583E-1
52 115 9.99999999223255E-1
53 28 9.999999963737081E-1
53 32 4.999999664452208E-1
53 45 4.9999994817771654E-1
53 46 9.999999933769104E-1
53 48 9.999999958542695E-1
53 62 9.999999831391151E-1
53 66 4.999999306277126E-1
53 68 9.999999940711294E-1
53 71 4.9999998570129445E-1
53 73 9.999999784749403E-1
53 80 9.999999845477949E-1
53 92 4.9999997383121697E-1
53 100 9.999999865902921E-1
54 1 9.999999869896143E-1
54 30 9.99999995858975E-1
54 37 9.999999978628934E-1
54 52 9.999999954246104E-1
54 57 9.999999950639227E-1
54 67 4.9999999294397873E-1
54 75 9.99999998804988E-1
54 78 4.999999912637889E-1
54 81 9.999999952210555E-1
54 106 4.9999999243812776E-1
54 115 9.999999983725606E-1
54 120 9.999999924087973E-1
55 1 4.99999987223296E-1
55 5 4.999999795818713E-1
55 6 9.999999843122498E-1
55 9 9.999999980231605E-1
55 50 4.999999555340412E-1
55 78 4.9999998926010397E-1
55 79 9.999999851977699E-1
55 91 9.999999911953941E-1
55 102 4.999999603261591E-1
55 104 4.999999606150241E-1
55 106 4.999999862332175E-1
55 109 9.999999910289523E-1
56 8 4.9999983703696255E-1
56 18 9.999998206394554E-1
56 26 9.999998246979264E-1
56 49 4.999998886202101E-1
56 51 9.999998384047444E-1
56 93 9.999999450165529E-1
56 97 9.999999282993451E-1
56 112 9.999998830846872E-1
56 116 9.999999974747156E-1
57 1 9.999999959301569E-1
57 16 4.9999998834363857E-1
57 29 4.999999884197842E-1
57 30 9.999999974801379E-1
57 37 9.999999896712912E-1
57 52 9.999999998258693E-1
57 54 9.999999950639227E-1
57 75 9.999999978094128E-1
57 78 9.999999943590702E-1
57 86 4.999999842980365E-1
57 106 9.999999965529888E-1
57 115 9.999999988596784E-1
58 3 9.999999451446118E-1
58 8 9.999999837291048E-1
58 21 4.999999413377363E-1
58 48 4.999998999450501E-1
58 60 4.9999992715497216E-1
58 71 4.999999067314119E-1
58 73 4.99999902244074E-1
58 80 4.9999991014426126E-1
58 117 4.999998943083757E-1
59 7 9.999999979306989E-1
59 15 4.9999997441606553E-1
59 17 9.999999893243479E-1
59 23 4.9999996115822537E-1
59 27 9.999999643071177E-1
59 43 9.99999999498461E-1
59 70 9.999999975011129E-1
59 98 9.999999977565567E-1
59 113 4.999999618162331E-1
59 117 9.999999793455394E-1
59 118 9.999999941780809E-1
59 119 9.999999998603903E-1
60 3 9.999999781843165E-1
60 8 4.999999431293557E-1
60 21 9.999999959596783E-1
60 48 9.999999784554454E-1
60 58 4.9999992715497216E-1
60 70 4.999999854458123E-1
60 71 9.999999963943715E-1
60 73 9.999999934817418E-1
60 80 9.999999922500267E-1
60 98 9.999999736616415E-1
60 117 9.999999934366376E-1
61 20 4.999999844328253E-1
61 24 9.999999977248216E-1
61 25 9.999999704462751E-1
61 35 9.999999993367222E-1
61 42 9.999999958312997E-1
61 64 9.999999713867844E-1
61 77 9.999999865216562E-1
61 96 9.999999966810995E-1
61 105 9.999999881580379E-1
61 114 9.999999983925338E-1
62 28 9.999999671921256E-1
62 32 9.999999719763922E-1
62 39 4.999999455918952E-1
62 45 9.999999544259224E-1
62 46 9.999999954803337E-1
62 48 4.9999998193190787E-1
62 49 4.999999401511551E-1
62 53 9.999999831391151E-1
62 66 4.9999995655667157E-1
62 68 9.999999724458429E-1
62 92 9.999999873925223E-1
62 100 9.999999989935902E-1
63 10 4.99999939000686E-1
63 22 4.999999744108262E-1
63 31 4.999999346954064E-1
63 40 4.999999837733646E-1
63 41 9.999999768912886E-1
63 44 4.999998618575579E-1
63 64 4.999999679862408E-1
63 82 4.999999816186581E-1
63 89 4.999999059036504E-1
63 90 9.99999974318784E-1
63 99 9.99999990330626E-1
63 105 4.999999696995818E-1
63 108 4.999999803485544E-1
64 24 4.999999764945684E-1
64 25 9.999999993795351E-1
64 35 9.999999774314436E-1
64 40 4.99999985028493E-1
64 42 4.9999997427338166E-1
64 61 9.999999713867844E-1
64 63 4.999999679862408E-1
64 67 4.9999998656998773E-1
64 77 9.999999971316037E-1
64 96 9.999999725622086E-1
64 105 9.999999828914143E-1
64 108 9.999999969200674E-1
64 114 9.999999813176772E-1
65 6 4.999999562119388E-1
65 36 9.999999763266856E-1
65 50 4.9999994360865774E-1
65 69 9.999999869823682E-1
65 83 4.9999988691495173E-1
65 84 4.9999991229428303E-1
65 88 9.999999300125049E-1
65 94 9.999999495289836E-1
65 102 9.999999707025838E-1
65 104 9.999999063396494E-1
65 109 4.999999387064868E-1
66 32 9.999999835903594E-1
66 33 4.999998016076219E-1
66 39 9.99999984238378E-1
66 46 4.9999995605687714E-1
66 53 4.999999306277126E-1
66 62 4.9999995655667157E-1
66 68 4.999999424133409E-1
66 92 4.9999994385749086E-1
66 100 4.9999994674618325E-1
66 103 4.999999294077102E-1
67 4 9.999999893857289E-1
67 14 9.999999920354299E-1
67 22 9.999999830943223E-1
67 25 4.999999886916798E-1
67 37 9.99999994051201E-1
67 40 4.99999987023517E-1
67 54 4.9999999294397873E-1
67 64 4.9999998656998773E-1
67 75 4.999999913108217E-1
67 81 9.999999970343237E-1
67 85 9.999999836349517E-1
67 108 4.999999843463315E-1
67 120 9.9999999615839E-1
68 19 4.999999808620801E-1
68 28 9.999999977325945E-1
68 32 4.9999997028766247E-1
68 39 4.9999995220231236E-1
68 46 9.999999901416144E-1
68 48 9.999999879623258E-1
68 53 9.999999940711294E-1
68 62 9.999999724458429E-1
68 66 4.999999424133409E-1
68 71 4.999999817061794E-1
68 73 4.9999998595683387E-1
68 80 9.999999747757357E-1
68 92 4.9999996165957283E-1
68 100 9.999999725365482E-1
68 103 4.999999681161299E-1
69 11 9.999998827178505E-1
69 36 9.999999972981191E-1
69 38 4.999999202369815E-1
69 65 9.999999869823682E-1
69 76 4.99999927653391E-1
69 84 9.999998501229042E-1
69 88 9.999999767145124E-1
69 94 9.999999835853051E-1
69 95 9.999999358826962E-1
69 102 9.999999290859252E-1
70 7 9.999999908842295E-1
70 17 9.999999836235193E-1
70 21 9.999999748336813E-1
70 43 9.99999994790082E-1
70 59 9.999999975011129E-1
70 60 4.999999854458123E-1
70 98 9.999999967311833E-1
70 117 9.999999833738078E-1
70 118 9.999999841037149E-1
70 119 9.99999998415011E-1
71 3 4.999999803113285E-1
71 17 4.999999875548126E-1
71 19 4.9999997935924E-1
71 21 9.999999848995359E-1
71 28 9.999999790647821E-1
71 48 9.999999888768911E-1
71 53 4.9999998570129445E-1
71 58 4.999999067314119E-1
71 60 9.999999963943715E-1
71 68 4.999999817061794E-1
71 73 9.999999994333968E-1
71 80 9.99999997675785E-1
71 98 4.9999998678923047E-1
71 117 9.999999957259298E-1
72 2 9.999999089869579E-1
72 16 9.999999630419412E-1
72 29 4.999999819111866E-1
72 74 9.999999941546185E-1
72 79 4.999999604851304E-1
72 86 9.999999726529073E-1
72 101 9.999999607201598E-1
72 107 9.99999963215677E-1
72 121 9.999999999134878E-1
73 3 4.9999997782480626E-1
73 17 4.999999859723721E-1
73 19 4.999999811479513E-1
73 21 9.999999791894266E-1
73 28 9.999999853827704E-1
73 48 9.99999992945761E-1
73 53 9.999999784749403E-1
73 58 4.99999902244074E-1
73 60 9.999999934817418E-1
73 68 4.9999998595683387E-1
73 71 9.999999994333968E-1
73 80 9.999999989462495E-1
73 117 9.999999929778824E-1
74 2 9.99999948862598E-1
74 11 4.999999447121234E-1
74 16 4.999999645481875E-1
74 29 4.999999658083239E-1
74 72 9.999999941546185E-1
74 79 4.99999947777702E-1
74 86 4.999999715840851E-1
74 101 9.999999851797328E-1
74 107 9.999999853720933E-1
74 121 9.999999947459682E-1
75 1 9.999999936408962E-1
75 30 9.999999990725861E-1
75 37 9.999999969856598E-1
75 52 9.999999984674188E-1
75 54 9.99999998804988E-1
75 57 9.999999978094128E-1
75 67 4.999999913108217E-1
75 78 4.9999999516198396E-1
75 81 9.999999939888599E-1
75 106 4.9999999584035615E-1
75 115 9.999999998168712E-1
75 120 9.999999928492274E-1
76 13 9.999999927706705E-1
76 19 4.999999716993979E-1
76 34 4.999999723174437E-1
76 36 4.999999392445905E-1
76 38 4.9999992183551745E-1
76 47 9.999999803857248E-1
76 69 4.99999927653391E-1
76 88 9.999999449262916E-1
76 94 4.999999537854557E-1
76 95 9.999999836946605E-1
76 103 9.999999532237689E-1
76 110 9.999999559175612E-1
76 111 9.999999990887428E-1
77 24 9.999999732204913E-1
77 25 9.999999961096581E-1
77 35 9.999999906546351E-1
77 42 4.99999984980248E-1
77 61 9.999999865216562E-1
77 64 9.999999971316037E-1
77 96 9.999999869605999E-1
77 105 9.999999916983074E-1
77 108 9.999999916719222E-1
77 114 9.99999993077321E-1
78 1 9.999999995766612E-1
78 6 4.999999682974442E-1
78 9 9.999999824902305E-1
78 16 4.9999998488494396E-1
78 29 4.999999869476717E-1
78 30 9.999999945624916E-1
78 52 9.999999952481834E-1
78 54 4.999999912637889E-1
78 55 4.9999998926010397E-1
78 57 9.999999943590702E-1
78 75 4.9999999516198396E-1
78 79 4.9999998754860636E-1
78 86 4.9999998202788976E-1
78 91 4.999999745930603E-1
78 106 9.999999994693931E-1
78 115 4.999999957231877E-1
79 1 4.9999998410672386E-1
79 6 9.999999827637419E-1
79 9 9.999999756725609E-1
79 29 9.999999691501872E-1
79 55 9.999999851977699E-1
79 72 4.999999604851304E-1
79 74 4.99999947777702E-1
79 78 4.9999998754860636E-1
79 86 9.999999625849505E-1
79 91 4.999999782775083E-1
79 102 4.999999772458386E-1
79 106 4.999999867809878E-1
79 109 9.999999728158363E-1
79 121 4.9999995782786405E-1
80 3 4.9999998065013784E-1
80 8 4.9999993727200587E-1
80 21 9.999999776208705E-1
80 28 9.999999876291973E-1
80 46 4.999999788470234E-1
80 48 9.999999964095828E-1
80 53 9.999999845477949E-1
80 58 4.9999991014426126E-1
80 60 9.999999922500267E-1
80 68 9.999999747757357E-1
80 71 9.99999997675785E-1
80 73 9.999999989462495E-1
80 117 9.999999871701613E-1
81 4 9.999999866768395E-1
81 14 9.999999874250111E-1
81 22 4.999999879785748E-1
81 30 4.999999961042485E-1
81 37 9.999999994387352E-1
81 54 9.999999952210555E-1
81 67 9.999999970343237E-1
81 75 9.999999939888599E-1
81 85 4.999999906648091E-1
81 115 9.99999991749248E-1
81 120 9.999999991978291E-1
82 4 9.999999901111793E-1
82 5 9.999999790825208E-1
82 12 4.9999997057179046E-1
82 14 9.999999890330955E-1
82 22 9.999999960243074E-1
82 40 9.999999968356172E-1
82 41 9.999999894081476E-1
82 63 4.999999816186581E-1
82 85 9.999999931639755E-1
82 87 4.999999315242679E-1
82 90 4.999999646434463E-1
82 99 4.999999581810949E-1
82 108 4.9999998216871727E-1
82 120 4.999999817824804E-1
83 12 4.9999987021666725E-1
83 38 4.9999987895970904E-1
83 50 9.999999144966083E-1
83 65 4.9999988691495173E-1
83 84 9.999998727006114E-1
83 87 4.9999992101147567E-1
83 91 4.999998660250852E-1
83 104 4.999999509682604E-1
83 109 4.9999987493620435E-1
84 36 4.999999108446468E-1
84 38 9.999999816505634E-1
84 65 4.9999991229428303E-1
84 69 9.999998501229042E-1
84 83 9.999998727006114E-1
84 88 4.9999993633405293E-1
84 94 4.999998878182551E-1
84 95 4.99999912542094E-1
84 110 4.999999377429452E-1
85 4 9.99999999372045E-1
85 5 4.999999873274136E-1
85 12 4.9999995585693874E-1
85 14 9.999999979660874E-1
85 22 9.999999980194709E-1
85 37 4.999999882634872E-1
85 40 9.9999999193907E-1
85 41 4.999999832793924E-1
85 67 9.999999836349517E-1
85 81 4.999999906648091E-1
85 82 9.999999931639755E-1
85 120 4.9999999384904015E-1
86 16 9.999999991438414E-1
86 29 9.999999992143686E-1
86 52 4.999999822909502E-1
86 57 4.999999842980365E-1
86 72 9.999999726529073E-1
86 74 4.999999715840851E-1
86 78 4.9999998202788976E-1
86 79 9.999999625849505E-1
86 101 4.999999359783781E-1
86 106 4.9999998550611185E-1
86 107 4.999999362770125E-1
86 121 9.999999702355741E-1
87 5 4.999999640081138E-1
87 12 9.999999834346249E-1
87 41 4.9999995568297856E-1
87 44 4.999998755132833E-1
87 50 9.99999924772767E-1
87 82 4.999999315242679E-1
87 83 4.9999992101147567E-1
87 90 9.999999058674588E-1
87 91 4.999999514879497E-1
87 104 9.999999082552352E-1
87 109 4.9999993400649123E-1
88 13 4.9999995532067365E-1
88 36 9.999999813212304E-1
88 38 4.9999994983098023E-1
88 65 9.999999300125049E-1
88 69 9.999999767145124E-1
88 76 9.999999449262916E-1
88 84 4.9999993633405293E-1
88 94 9.999999806399765E-1
88 95 9.999999883709274E-1
88 110 9.99999920084491E-1
88 111 9.999999317586187E-1
89 10 9.999998963354311E-1
89 20 4.9999986940341623E-1
89 31 9.999999058405135E-1
89 41 4.9999985144450804E-1
89 44 9.999998903146049E-1
89 63 4.999999059036504E-1
89 90 4.999999222865345E-1
89 99 4.9999993924992575E-1
89 105 4.999998450496041E-1
90 5 4.999999532324702E-1
90 12 9.999999509934684E-1
90 22 4.9999994781737955E-1
90 40 4.9999995883897624E-1
90 41 9.999999714576746E-1
90 44 4.999999245848098E-1
90 63 9.99999974318784E-1
90 82 4.999999646434463E-1
90 87 9.999999058674588E-1
90 89 4.999999222865345E-1
90 99 9.999999637540321E-1
91 5 9.999999785679683E-1
91 6 9.999999771045655E-1
91 9 9.99999991317647E-1
91 12 4.9999996721657586E-1
91 50 9.999999472098056E-1
91 55 9.999999911953941E-1
91 78 4.999999745930603E-1
91 79 4.999999782775083E-1
91 83 4.999998660250852E-1
91 87 4.999999514879497E-1
91 102 4.999999488452703E-1
91 104 9.999999513752438E-1
91 109 9.99999993212521E-1
92 26 4.9999994552918E-1
92 32 9.999999543962137E-1
92 33 4.999998085500616E-1
92 45 9.999999896623192E-1
92 46 9.999999678596012E-1
92 48 4.999999609733036E-1
92 49 9.999999443017934E-1
92 53 4.9999997383121697E-1
92 62 9.999999873925223E-1
92 66 4.9999994385749086E-1
92 68 4.9999996165957283E-1
92 100 9.999999870801963E-1
92 112 4.9999992063857823E-1
93 18 9.999998537133221E-1
93 26 4.9999984328473557E-1
93 45 4.9999969899474034E-1
93 49 4.9999979492699814E-1
93 51 9.999998081571971E-1
93 56 9.999999450165529E-1
93 97 9.999998281685281E-1
93 112 4.999998832707994E-1
93 116 9.99999920492872E-1
94 2 4.999999371013595E-1
94 11 9.999999382730095E-1
94 36 9.999999941716279E-1
94 65 9.999999495289836E-1
94 69 9.999999835853051E-1
94 76 4.999999537854557E-1
94 84 4.999998878182551E-1
94 88 9.999999806399765E-1
94 95 9.99999963445776E-1
94 102 4.999999446317839E-1
94 111 4.999999441747993E-1
95 13 9.999999630358832E-1
95 36 9.999999496609491E-1
95 38 4.9999994064675635E-1
95 47 4.9999996416577525E-1
95 69 9.999999358826962E-1
95 76 9.999999836946605E-1
95 84 4.99999912542094E-1
95 88 9.999999883709274E-1
95 94 9.99999963445776E-1
95 110 9.999999459410653E-1
95 111 9.999999758327017E-1
96 10 4.999999496041445E-1
96 20 9.999999816935964E-1
96 24 9.999999933661133E-1
96 25 4.999999844280865E-1
96 31 4.999999426632834E-1
96 35 9.999999983873225E-1
96 42 9.999999948026979E-1
96 61 9.999999966810995E-1
96 64 9.999999725622086E-1
96 77 9.999999869605999E-1
96 105 9.999999961060543E-1
96 114 9.999999983428657E-1
97 18 9.999999024898263E-1
97 26 9.999999766816615E-1
97 33 4.9999984504714173E-1
97 45 4.9999993466512116E-1
97 49 9.999999489074537E-1
97 51 9.99999955698596E-1
97 56 9.999999282993451E-1
97 93 9.999998281685281E-1
97 112 9.999999944373147E-1
97 116 9.999999257973512E-1
98 7 9.999999943981649E-1
98 17 9.999999949806068E-1
98 21 4.9999998517471905E-1
98 43 9.999999969298776E-1
98 59 9.999999977565567E-1
98 60 9.999999736616415E-1
98 70 9.999999967311833E-1
98 71 4.9999998678923047E-1
98 117 9.999999905528785E-1
98 118 9.999999905092465E-1
98 119 9.999999974463337E-1
99 10 9.999999326514912E-1
99 31 9.999999274112785E-1
99 40 4.999999630707911E-1
99 41 4.9999996984374223E-1
99 44 4.999998785307043E-1
99 63 9.99999990330626E-1
99 82 4.999999581810949E-1
99 89 4.9999993924992575E-1
99 90 9.999999637540321E-1
99 105 4.999999690103654E-1
99 108 4.999999679774497E-1
100 8 4.999999328199314E-1
100 28 9.999999702929634E-1
100 32 9.999999603551755E-1
100 39 4.999999358349374E-1
100 45 9.99999955592182E-1
100 46 9.999999945077921E-1
100 48 4.999999853889492E-1
100 49 4.99999942523111E-1
100 53 9.999999865902921E-1
100 62 9.999999989935902E-1
100 66 4.9999994674618325E-1
100 68 9.999999725365482E-1
100 92 9.999999870801963E-1
101 2 9.999999881314657E-1
101 11 9.999999484690296E-1
101 29 4.9999992801095894E-1
101 72 9.999999607201598E-1
101 74 9.999999851797328E-1
101 86 4.999999359783781E-1
101 102 4.9999993349246136E-1
101 107 9.999999966565146E-1
101 121 9.999999624100375E-1
102 2 4.9999992827911866E-1
102 6 9.999999715091672E-1
102 11 4.9999992925772924E-1
102 36 9.999999186836717E-1
102 55 4.999999603261591E-1
102 65 9.999999707025838E-1
102 69 9.999999290859252E-1
102 79 4.999999772458386E-1
102 91 4.999999488452703E-1
102 94 4.999999446317839E-1
102 101 4.9999993349246136E-1
102 104 9.999999131168905E-1
102 109 9.999999432580331E-1
103 13 4.999999681344865E-1
103 19 9.999999642575718E-1
103 28 4.999999606911381E-1
103 38 4.999999294496891E-1
103 39 9.999999288798331E-1
103 47 9.99999971141188E-1
103 66 4.999999294077102E-1
103 68 4.999999681161299E-1
103 76 9.999999532237689E-1
103 110 9.999999753007499E-1
103 111 9.999999638516773E-1
104 6 9.999999562916884E-1
104 9 4.999999538182387E-1
104 50 9.999999988525251E-1
104 55 4.999999606150241E-1
104 65 9.999999063396494E-1
104 83 4.999999509682604E-1
104 87 9.999999082552352E-1
104 91 9.999999513752438E-1
104 102 9.999999131168905E-1
104 109 9.999999646947864E-1
105 10 4.999999522291666E-1
105 20 4.99999987096296E-1
105 24 9.999999796451925E-1
105 25 4.999999889463819E-1
105 31 4.9999994563305794E-1
105 35 9.999999929972138E-1
105 42 9.999999820106805E-1
105 61 9.999999881580379E-1
105 63 4.999999696995818E-1
105 64 9.999999828914143E-1
105 77 9.999999916983074E-1
105 89 4.999998450496041E-1
105 96 9.999999961060543E-1
105 99 4.999999690103654E-1
105 108 9.999999823226409E-1
105 114 9.999999948047487E-1
106 1 9.999999990813301E-1
106 9 4.9999998807630736E-1
106 16 4.9999998830072356E-1
106 29 4.999999898648783E-1
106 30 9.999999947693895E-1
106 37 4.999999899844886E-1
106 52 9.999999968690583E-1
106 54 4.9999999243812776E-1
106 55 4.999999862332175E-1
106 57 9.999999965529888E-1
106 75 4.9999999584035615E-1
106 78 9.999999994693931E-1
106 79 4.999999867809878E-1
106 86 4.9999998550611185E-1
106 115 9.999999931697654E-1
107 2 9.99999977141504E-1
107 11 9.999999246086266E-1
107 16 4.999999262579801E-1
107 29 4.999999273686396E-1
107 72 9.99999963215677E-1
107 74 9.999999853720933E-1
107 86 4.999999362770125E-1
107 101 9.999999966565146E-1
107 121 9.999999656849785E-1
108 14 4.9999998642311294E-1
108 22 9.999999747603947E-1
108 25 9.99999993961428E-1
108 40 9.999999822632476E-1
108 63 4.999999803485544E-1
108 64 9.999999969200674E-1
108 67 4.999999843463315E-1
108 77 9.999999916719222E-1
108 82 4.9999998216871727E-1
108 99 4.999999679774497E-1
108 105 9.999999823226409E-1
108 114 4.999999863750786E-1
109 5 4.9999997384218636E-1
109 6 9.99999994944306E-1
109 9 9.999999839545687E-1
109 50 9.999999566001927E-1
109 55 9.999999910289523E-1
109 65 4.999999387064868E-1
109 79 9.999999728158363E-1
109 83 4.9999987493620435E-1
109 87 4.9999993400649123E-1
109 91 9.99999993212521E-1
109 102 9.999999432580331E-1
109 104 9.999999646947864E-1
110 13 4.9999995911085426E-1
110 19 4.99999947782252E-1
110 38 9.999999494404653E-1
110 39 4.999999454674897E-1
110 47 4.9999996561005317E-1
110 76 9.999999559175612E-1
110 84 4.999999377429452E-1
110 88 9.99999920084491E-1
110 95 9.999999459410653E-1
110 103 9.999999753007499E-1
110 111 9.999999591023485E-1
111 13 9.999999929768582E-1
111 19 4.999999779483429E-1
111 34 4.9999997110310734E-1
111 36 4.9999992862184284E-1
111 38 4.999999199977382E-1
111 47 9.999999872102048E-1
111 76 9.999999990887428E-1
111 88 9.999999317586187E-1
111 94 4.999999441747993E-1
111 95 9.999999758327017E-1
111 103 9.999999638516773E-1
111 110 9.999999591023485E-1
112 18 9.999998941374265E-1
112 26 9.999999938400538E-1
112 33 4.999998716561169E-1
112 45 9.999999118444117E-1
112 49 9.999999732751946E-1
112 51 9.999999592868201E-1
112 56 9.999998830846872E-1
112 92 4.9999992063857823E-1
112 93 4.999998832707994E-1
112 97 9.999999944373147E-1
112 116 9.999998814913821E-1
113 7 4.999999713300966E-1
113 15 9.999999950321622E-1
113 23 9.999999964621261E-1
113 27 9.999999897042899E-1
113 34 9.999999820219725E-1
113 43 4.9999996619753145E-1
113 59 4.999999618162331E-1
113 118 4.999999752953003E-1
113 119 4.9999996007090375E-1
114 10 4.9999993644038937E-1
114 20 4.999999845683424E-1
114 24 9.999999929517588E-1
114 25 9.999999793924266E-1
114 31 4.999999286855179E-1
114 35 9.999999997745919E-1
114 42 9.999999918716846E-1
114 61 9.999999983925338E-1
114 64 9.999999813176772E-1
114 77 9.99999993077321E-1
114 96 9.999999983428657E-1
114 105 9.999999948047487E-1
114 108 4.999999863750786E-1
115 1 9.999999943254151E-1
115 16 4.999999830502458E-1
115 29 4.999999828562391E-1
115 30 9.999999988741488E-1
115 37 9.999999953864036E-1
115 52 9.99999999223255E-1
115 54 9.999999983725606E-1
115 57 9.999999988596784E-1
115 75 9.999999998168712E-1
115 78 4.999999957231877E-1
115 81 9.99999991749248E-1
115 106 9.999999931697654E-1
115 120 4.9999999519995186E-1
116 8 4.9999985928371377E-1
116 18 9.99999786812853E-1
116 26 9.999998251307485E-1
116 49 4.99999893783014E-1
116 51 9.999998165638041E-1
116 56 9.999999974747156E-1
116 93 9.99999920492872E-1
116 97 9.999999257973512E-1
116 112 9.999998814913821E-1
117 3 4.9999997423055276E-1
117 7 4.999999857420321E-1
117 17 9.999999896423424E-1
117 19 4.999999817943284E-1
117 21 9.999999850668202E-1
117 43 4.9999998844322563E-1
117 48 4.9999998595005235E-1
117 58 4.999998943083757E-1
117 59 9.999999793455394E-1
117 60 9.999999934366376E-1
117 70 9.999999833738078E-1
117 71 9.999999957259298E-1
117 73 9.999999929778824E-1
117 80 9.999999871701613E-1
117 98 9.999999905528785E-1
117 119 4.9999998960654113E-1
118 7 9.999999990121788E-1
118 15 9.999999735969329E-1
118 17 9.999999901194107E-1
118 23 4.9999997724755413E-1
118 27 9.999999843888082E-1
118 34 4.999999843894583E-1
118 43 9.999999970906923E-1
118 47 4.9999997230120813E-1
118 59 9.999999941780809E-1
118 70 9.999999841037149E-1
118 98 9.999999905092465E-1
118 113 4.999999752953003E-1
118 119 9.999999923456323E-1
119 7 9.999999968263417E-1
119 17 9.999999874595992E-1
119 21 9.999999619450505E-1
119 27 4.999999805382116E-1
119 43 9.999999988543538E-1
119 59 9.999999998603903E-1
119 70 9.99999998415011E-1
119 98 9.999999974463337E-1
119 113 4.9999996007090375E-1
119 117 4.9999998960654113E-1
119 118 9.999999923456323E-1
120 4 9.999999916368117E-1
120 14 9.999999915095747E-1
120 22 4.9999999103283044E-1
120 30 4.9999999636828857E-1
120 37 9.999999982037603E-1
120 54 9.999999924087973E-1
120 67 9.9999999615839E-1
120 75 9.999999928492274E-1
120 81 9.999999991978291E-1
120 82 4.999999817824804E-1
120 85 4.9999999384904015E-1
120 115 4.9999999519995186E-1
121 2 9.999999108955713E-1
121 16 4.999999802014479E-1
121 29 4.9999998044655836E-1
121 72 9.999999999134878E-1
121 74 9.999999947459682E-1
121 79 4.9999995782786405E-1
121 86 9.999999702355741E-1
121 101 9.999999624100375E-1
121 107 9.999999656849785E-1
