%%MatrixMarket matrix coordinate real general
%
132 132 680
1 12 4.999999842446396E-1
1 41 4.999999891757841E-1
1 65 9.999999748591678E-1
1 88 4.999999942235824E-1
1 94 4.9999995184539014E-1
1 98 4.9999998450162353E-1
1 107 4.9999996720316076E-1
1 123 4.9999999422613395E-1
2 29 9.999999968719003E-1
2 54 9.999999967171948E-1
2 84 9.999999995396079E-1
2 113 9.999999990009224E-1
3 11 9.999999832359571E-1
3 68 4.999999843326719E-1
3 109 9.999999870926581E-1
3 114 9.999999751407871E-1
4 7 9.999999848564808E-1
4 8 4.9999997816788155E-1
4 60 4.999999701716645E-1
4 62 4.9999998813743646E-1
4 75 9.99999991680004E-1
4 86 4.999999789565182E-1
5 22 9.999999977109765E-1
5 66 9.999999980962011E-1
5 70 4.999999942283511E-1
5 92 9.999999993170825E-1
5 120 9.999999970478628E-1
6 52 4.999999694747594E-1
6 57 4.999999914695804E-1
6 81 4.9999998900691445E-1
6 85 9.99999981255118E-1
6 110 4.9999998450773664E-1
6 116 9.999999945018003E-1
7 4 9.999999848564808E-1
7 8 4.999999449578754E-1
7 13 4.9999999428126424E-1
7 60 4.9999993620325234E-1
7 62 9.999999956060442E-1
7 75 9.999999989546111E-1
8 4 4.9999997816788155E-1
8 7 4.999999449578754E-1
8 60 9.999999823049754E-1
8 75 4.999999551080959E-1
9 57 9.999999978501353E-1
9 81 9.999999855136886E-1
9 85 4.999999867716365E-1
9 99 9.999999905577138E-1
9 116 4.999999912750866E-1
10 21 4.999999773404676E-1
10 30 9.999999995127332E-1
10 97 4.9999994363103356E-1
10 107 4.999999633783666E-1
10 112 4.9999994804796793E-1
11 3 9.999999832359571E-1
11 102 4.999999664351408E-1
11 109 4.9999997197936025E-1
11 114 4.999999590049537E-1
12 1 4.999999842446396E-1
12 88 4.9999996799605156E-1
12 94 9.999999819847207E-1
12 98 9.999999467041137E-1
13 7 4.9999999428126424E-1
13 16 9.99999996791361E-1
13 62 9.999999958852764E-1
13 75 4.9999999150913316E-1
13 77 4.9999999649819354E-1
13 96 9.99999993373076E-1
13 128 9.999999995496509E-1
14 34 4.9999998657168754E-1
14 48 9.999999861708064E-1
14 82 9.999999921379149E-1
14 118 9.999999923621493E-1
15 23 9.999999969830249E-1
15 26 9.999999984536762E-1
15 34 9.999999935412666E-1
15 121 9.999999945973462E-1
16 13 9.99999996791361E-1
16 20 4.9999998660990863E-1
16 77 9.999999953192091E-1
16 86 9.999999895416627E-1
16 128 9.999999982188267E-1
17 28 9.99999999237234E-1
17 54 4.99999985316911E-1
17 93 9.999999990689051E-1
17 113 4.999999872767305E-1
18 20 4.9999998840578985E-1
18 44 4.9999999507918813E-1
18 59 4.9999999415573293E-1
18 106 4.999999972706392E-1
18 128 4.9999999436788806E-1
18 129 4.9999999462730016E-1
19 25 4.999999275334576E-1
19 32 4.9999990374468334E-1
19 53 9.99999979784748E-1
19 101 4.9999992045470404E-1
19 105 4.999999469775665E-1
19 119 4.9999994243583984E-1
20 16 4.9999998660990863E-1
20 18 4.9999998840578985E-1
20 43 9.999999752127184E-1
20 48 9.999999894985014E-1
20 111 4.9999998056458667E-1
21 10 4.999999773404676E-1
21 24 4.99999985918982E-1
21 30 4.9999997255570555E-1
21 42 4.9999999099565234E-1
21 104 4.999999900456533E-1
21 112 4.99999985966884E-1
22 5 9.999999977109765E-1
22 41 9.999999976084171E-1
22 66 4.9999999688652763E-1
22 88 9.999999956763302E-1
22 92 9.999999978461228E-1
22 123 4.99999997837164E-1
23 15 9.999999969830249E-1
23 26 9.999999912243104E-1
23 34 9.999999927945081E-1
23 121 9.999999961524695E-1
24 21 4.99999985918982E-1
24 35 9.999999948212911E-1
24 42 9.999999988599811E-1
24 63 9.999999975256839E-1
24 104 4.9999999639273723E-1
25 19 4.999999275334576E-1
25 32 4.999998794565371E-1
25 46 4.999999715822686E-1
25 51 9.999999880009427E-1
25 53 4.9999997102482735E-1
25 105 9.999999746406963E-1
25 119 9.999999933008972E-1
26 15 9.999999984536762E-1
26 23 9.999999912243104E-1
26 34 9.999999917638056E-1
26 121 9.999999888031457E-1
27 50 9.999999953476029E-1
27 55 9.999999960563125E-1
27 71 9.999999975341372E-1
27 79 9.999999971737772E-1
28 17 9.99999999237234E-1
28 84 4.9999998580525123E-1
28 93 9.999999991456052E-1
28 113 4.9999998897778974E-1
29 2 9.999999968719003E-1
29 54 9.999999984832159E-1
29 56 4.999999977482634E-1
29 80 9.999999989914131E-1
29 84 4.999999970432836E-1
29 113 4.99999997155787E-1
29 124 9.999999987756074E-1
29 126 4.999999977722056E-1
30 10 9.999999995127332E-1
30 21 4.9999997255570555E-1
30 97 9.99999897599093E-1
30 107 4.999999605289324E-1
31 33 4.999999449804464E-1
31 40 4.9999997964720994E-1
31 47 4.9999998263635337E-1
31 64 4.9999998476179636E-1
31 69 9.999999821540861E-1
31 90 4.999999915379045E-1
32 19 4.9999990374468334E-1
32 25 4.999998794565371E-1
32 33 9.999998892582762E-1
32 53 4.9999991978623554E-1
33 31 4.999999449804464E-1
33 32 9.999998892582762E-1
33 46 4.9999994159810096E-1
33 69 4.9999994473116477E-1
34 14 4.9999998657168754E-1
34 15 9.999999935412666E-1
34 23 9.999999927945081E-1
34 26 9.999999917638056E-1
34 121 9.999999804484243E-1
35 24 9.999999948212911E-1
35 42 4.999999967813878E-1
35 63 9.99999999278668E-1
35 104 9.999999982461709E-1
35 112 4.999999961921433E-1
35 122 9.999999997548628E-1
36 72 9.999999970616338E-1
36 74 9.999999817808682E-1
36 95 9.999999796863489E-1
36 102 9.999999936614927E-1
37 56 9.999999976758406E-1
37 70 4.9999999676526263E-1
37 80 4.99999998360913E-1
37 87 9.999999993896098E-1
37 126 4.9999999628373093E-1
37 131 9.999999980465424E-1
38 39 9.99999927808881E-1
38 40 9.999999608557154E-1
38 111 4.9999997268959384E-1
38 117 9.999999628337073E-1
39 38 9.99999927808881E-1
39 89 4.9999986836551535E-1
39 91 9.999999800445072E-1
39 95 4.9999994543987747E-1
39 117 4.999999725075911E-1
40 31 4.9999997964720994E-1
40 38 9.999999608557154E-1
40 69 9.999999828588234E-1
40 90 4.99999967430772E-1
41 1 4.999999891757841E-1
41 22 9.999999976084171E-1
41 65 4.999999823531091E-1
41 88 9.999999965586509E-1
41 92 4.999999956167637E-1
41 123 9.999999965609182E-1
42 21 4.9999999099565234E-1
42 24 9.999999988599811E-1
42 35 4.999999967813878E-1
42 63 4.9999999773321463E-1
42 104 4.999999971738989E-1
43 20 9.999999752127184E-1
43 48 4.9999998511327287E-1
43 71 4.9999998014272035E-1
43 111 9.999999958378497E-1
44 18 4.9999999507918813E-1
44 59 4.9999999660974803E-1
44 61 9.999999994545632E-1
44 106 9.999999966611615E-1
44 129 9.999999968360517E-1
44 130 9.999999987540796E-1
45 94 4.999998646174372E-1
45 97 9.99999880714261E-1
45 98 4.9999991798400634E-1
45 107 4.999998678989615E-1
46 25 4.999999715822686E-1
46 33 4.9999994159810096E-1
46 51 9.999999800420678E-1
46 64 4.999999752184986E-1
46 100 9.999999887575014E-1
46 108 4.999999758526676E-1
47 31 4.9999998263635337E-1
47 64 9.999999950847446E-1
47 71 4.999999946393738E-1
47 79 9.999999945664885E-1
47 90 9.999999958256741E-1
47 100 4.9999998252323735E-1
47 108 9.999999940270801E-1
48 14 9.999999861708064E-1
48 20 9.999999894985014E-1
48 43 4.9999998511327287E-1
48 82 9.999999786689622E-1
48 111 4.9999998430764314E-1
48 118 9.999999860907628E-1
49 58 9.999999835988901E-1
49 101 4.9999993105145146E-1
49 105 4.999999597389383E-1
49 119 4.999999382446776E-1
49 127 9.999999940233141E-1
50 27 9.999999953476029E-1
50 55 9.999999954914095E-1
50 77 4.999999961641652E-1
50 86 9.999999960953273E-1
51 25 9.999999880009427E-1
51 46 9.999999800420678E-1
51 105 9.999999444355181E-1
51 119 9.999999709360743E-1
52 6 4.999999694747594E-1
52 81 4.9999997720547534E-1
52 89 4.999999535064114E-1
52 94 4.9999995909420725E-1
52 99 4.9999997129464063E-1
52 116 4.999999764007866E-1
53 19 9.99999979784748E-1
53 25 4.9999997102482735E-1
53 32 4.9999991978623554E-1
53 105 9.999999518210632E-1
53 119 9.999999557233508E-1
54 2 9.999999967171948E-1
54 17 4.99999985316911E-1
54 29 9.999999984832159E-1
54 80 9.999999983332779E-1
54 84 4.9999999741613754E-1
54 113 4.9999999829750946E-1
54 124 9.999999991552695E-1
55 27 9.999999960563125E-1
55 50 9.999999954914095E-1
55 71 9.99999993552198E-1
55 79 9.999999977909614E-1
55 108 4.9999999270829576E-1
56 29 4.999999977482634E-1
56 37 9.999999976758406E-1
56 80 9.999999987003932E-1
56 87 4.999999974013864E-1
56 124 9.99999998230117E-1
57 6 4.999999914695804E-1
57 9 9.999999978501353E-1
57 81 9.999999871286243E-1
57 85 4.9999999195109357E-1
57 99 9.999999904247605E-1
57 116 9.999999902437506E-1
58 49 9.999999835988901E-1
58 101 9.999999402040615E-1
58 105 4.999999610118302E-1
58 127 9.99999997253687E-1
59 18 4.9999999415573293E-1
59 44 4.9999999660974803E-1
59 61 4.999999944154366E-1
59 129 9.999999992701232E-1
60 4 4.999999701716645E-1
60 7 4.9999993620325234E-1
60 8 9.999999823049754E-1
60 75 4.999999459108522E-1
61 44 9.999999994545632E-1
61 59 4.999999944154366E-1
61 73 9.999999972823947E-1
61 106 9.999999975601966E-1
61 129 4.999999968342553E-1
61 130 9.999999998481709E-1
62 4 4.9999998813743646E-1
62 7 9.999999956060442E-1
62 13 9.999999958852764E-1
62 75 9.999999940894642E-1
62 77 9.999999929112235E-1
62 86 4.999999957858505E-1
62 128 4.999999964310858E-1
63 24 9.999999975256839E-1
63 35 9.99999999278668E-1
63 42 4.9999999773321463E-1
63 104 9.999999963906089E-1
63 122 9.999999982518385E-1
64 31 4.9999998476179636E-1
64 46 4.999999752184986E-1
64 47 9.999999950847446E-1
64 69 4.999999527542429E-1
64 90 9.999999903437832E-1
64 100 9.999999862890379E-1
64 108 9.99999998905503E-1
65 1 9.999999748591678E-1
65 41 4.999999823531091E-1
65 98 9.999999720710051E-1
65 107 9.999999894843026E-1
66 5 9.999999980962011E-1
66 22 4.9999999688652763E-1
66 92 9.999999989317203E-1
66 120 9.999999994183822E-1
67 83 9.99999996880544E-1
67 112 4.9999999069698253E-1
67 115 9.999999966504927E-1
67 125 9.999999993527899E-1
68 3 4.999999843326719E-1
68 76 4.9999998534820606E-1
68 78 9.999999902719772E-1
68 109 9.99999995332377E-1
68 114 9.999999991605121E-1
68 132 9.99999973017448E-1
69 31 9.999999821540861E-1
69 33 4.9999994473116477E-1
69 40 9.999999828588234E-1
69 64 4.999999527542429E-1
69 90 4.999999696938025E-1
70 5 4.999999942283511E-1
70 37 4.9999999676526263E-1
70 87 9.999999967747494E-1
70 131 9.999999958221485E-1
71 27 9.999999975341372E-1
71 43 4.9999998014272035E-1
71 47 4.999999946393738E-1
71 55 9.99999993552198E-1
71 79 9.999999985418557E-1
72 36 9.999999970616338E-1
72 74 4.999999870560279E-1
72 95 4.999999873382112E-1
72 102 9.999999821485894E-1
72 110 4.9999996143954345E-1
73 61 9.999999972823947E-1
73 96 9.999999968756192E-1
73 106 4.999999982225381E-1
73 130 9.999999982762828E-1
74 36 9.999999817808682E-1
74 72 4.999999870560279E-1
74 95 9.999999992160342E-1
74 102 9.99999984673195E-1
74 103 9.999999893347116E-1
75 4 9.99999991680004E-1
75 7 9.999999989546111E-1
75 8 4.999999551080959E-1
75 13 4.9999999150913316E-1
75 60 4.999999459108522E-1
75 62 9.999999940894642E-1
76 68 4.9999998534820606E-1
76 78 9.999999936429945E-1
76 93 9.999999702593206E-1
76 132 9.999999999059157E-1
77 13 4.9999999649819354E-1
77 16 9.999999953192091E-1
77 50 4.999999961641652E-1
77 62 9.999999929112235E-1
77 86 9.999999988540187E-1
78 68 9.999999902719772E-1
78 76 9.999999936429945E-1
78 109 4.9999999194128564E-1
78 114 9.999999840917685E-1
78 132 9.999999942861029E-1
79 27 9.999999971737772E-1
79 47 9.999999945664885E-1
79 55 9.999999977909614E-1
79 71 9.999999985418557E-1
79 90 4.999999934615879E-1
80 29 9.999999989914131E-1
80 37 4.99999998360913E-1
80 54 9.999999983332779E-1
80 56 9.999999987003932E-1
80 124 9.999999998008425E-1
81 6 4.9999998900691445E-1
81 9 9.999999855136886E-1
81 52 4.9999997720547534E-1
81 57 9.999999871286243E-1
81 94 4.9999995012849535E-1
81 99 9.99999999298799E-1
81 116 9.999999945007512E-1
82 14 9.999999921379149E-1
82 48 9.999999786689622E-1
82 103 9.999999822675163E-1
82 117 4.999999760295968E-1
82 118 9.99999999008984E-1
83 67 9.99999996880544E-1
83 112 9.999999909716919E-1
83 115 4.9999999547149865E-1
83 122 4.999999962357026E-1
83 125 9.999999989409939E-1
84 2 9.999999995396079E-1
84 28 4.9999998580525123E-1
84 29 4.999999970432836E-1
84 54 4.9999999741613754E-1
84 85 4.9999998645878335E-1
84 113 9.999999994229511E-1
85 6 9.99999981255118E-1
85 9 4.999999867716365E-1
85 57 4.9999999195109357E-1
85 84 4.9999998645878335E-1
85 110 4.999999752542537E-1
86 4 4.999999789565182E-1
86 16 9.999999895416627E-1
86 50 9.999999960953273E-1
86 62 4.999999957858505E-1
86 77 9.999999988540187E-1
87 37 9.999999993896098E-1
87 56 4.999999974013864E-1
87 70 9.999999967747494E-1
87 131 9.999999991276182E-1
88 1 4.999999942235824E-1
88 12 4.9999996799605156E-1
88 22 9.999999956763302E-1
88 41 9.999999965586509E-1
88 92 4.9999999628282216E-1
88 123 9.99999999999998E-1
89 39 4.9999986836551535E-1
89 52 4.999999535064114E-1
89 91 9.999998615585821E-1
89 94 4.9999991409791195E-1
90 31 4.999999915379045E-1
90 40 4.99999967430772E-1
90 47 9.999999958256741E-1
90 64 9.999999903437832E-1
90 69 4.999999696938025E-1
90 79 4.999999934615879E-1
90 108 4.999999925109011E-1
91 39 9.999999800445072E-1
91 89 9.999998615585821E-1
91 95 4.9999993076161575E-1
91 117 4.99999932293823E-1
92 5 9.999999993170825E-1
92 22 9.999999978461228E-1
92 41 4.999999956167637E-1
92 66 9.999999989317203E-1
92 88 4.9999999628282216E-1
92 120 9.999999971524961E-1
92 123 4.9999999627979813E-1
93 17 9.999999990689051E-1
93 28 9.999999991456052E-1
93 76 9.999999702593206E-1
93 113 4.999999842375171E-1
93 132 4.9999998381520366E-1
94 1 4.9999995184539014E-1
94 12 9.999999819847207E-1
94 45 4.999998646174372E-1
94 52 4.9999995909420725E-1
94 81 4.9999995012849535E-1
94 89 4.9999991409791195E-1
95 36 9.999999796863489E-1
95 39 4.9999994543987747E-1
95 72 4.999999873382112E-1
95 74 9.999999992160342E-1
95 91 4.9999993076161575E-1
95 102 9.999999789454675E-1
95 103 9.99999987353079E-1
96 13 9.99999993373076E-1
96 73 9.999999968756192E-1
96 106 9.99999996737775E-1
96 128 9.999999933620715E-1
97 10 4.9999994363103356E-1
97 30 9.99999897599093E-1
97 45 9.99999880714261E-1
97 107 4.9999993393270376E-1
98 1 4.9999998450162353E-1
98 12 9.999999467041137E-1
98 45 4.9999991798400634E-1
98 65 9.999999720710051E-1
98 107 9.999999605815608E-1
99 9 9.999999905577138E-1
99 52 4.9999997129464063E-1
99 57 9.999999904247605E-1
99 81 9.99999999298799E-1
99 116 9.999999926184387E-1
100 46 9.999999887575014E-1
100 47 4.9999998252323735E-1
100 64 9.999999862890379E-1
100 108 9.999999859493752E-1
101 19 4.9999992045470404E-1
101 49 4.9999993105145146E-1
101 58 9.999999402040615E-1
101 127 9.999999135339165E-1
102 11 4.999999664351408E-1
102 36 9.999999936614927E-1
102 72 9.999999821485894E-1
102 74 9.99999984673195E-1
102 95 9.999999789454675E-1
103 74 9.999999893347116E-1
103 82 9.999999822675163E-1
103 95 9.99999987353079E-1
103 118 9.999999737174302E-1
104 21 4.999999900456533E-1
104 24 4.9999999639273723E-1
104 35 9.999999982461709E-1
104 42 4.999999971738989E-1
104 63 9.999999963906089E-1
104 112 9.999999957652321E-1
104 122 9.99999998197823E-1
105 19 4.999999469775665E-1
105 25 9.999999746406963E-1
105 49 4.999999597389383E-1
105 51 9.999999444355181E-1
105 53 9.999999518210632E-1
105 58 4.999999610118302E-1
105 119 9.999999939504342E-1
105 127 4.9999995965133825E-1
106 18 4.999999972706392E-1
106 44 9.999999966611615E-1
106 61 9.999999975601966E-1
106 73 4.999999982225381E-1
106 96 9.99999996737775E-1
106 130 9.999999972228211E-1
107 1 4.9999996720316076E-1
107 10 4.999999633783666E-1
107 30 4.999999605289324E-1
107 45 4.999998678989615E-1
107 65 9.999999894843026E-1
107 97 4.9999993393270376E-1
107 98 9.999999605815608E-1
107 112 4.99999966297961E-1
108 46 4.999999758526676E-1
108 47 9.999999940270801E-1
108 55 4.9999999270829576E-1
108 64 9.99999998905503E-1
108 90 4.999999925109011E-1
108 100 9.999999859493752E-1
109 3 9.999999870926581E-1
109 11 4.9999997197936025E-1
109 68 9.99999995332377E-1
109 78 4.9999999194128564E-1
109 114 9.999999963638722E-1
110 6 4.9999998450773664E-1
110 72 4.9999996143954345E-1
110 85 4.999999752542537E-1
110 116 4.999999691458126E-1
111 20 4.9999998056458667E-1
111 38 4.9999997268959384E-1
111 43 9.999999958378497E-1
111 48 4.9999998430764314E-1
111 117 9.999999731389188E-1
112 10 4.9999994804796793E-1
112 21 4.99999985966884E-1
112 35 4.999999961921433E-1
112 67 4.9999999069698253E-1
112 83 9.999999909716919E-1
112 104 9.999999957652321E-1
112 107 4.99999966297961E-1
112 115 4.9999999038770454E-1
112 122 9.999999943500282E-1
113 2 9.999999990009224E-1
113 17 4.999999872767305E-1
113 28 4.9999998897778974E-1
113 29 4.99999997155787E-1
113 54 4.9999999829750946E-1
113 84 9.999999994229511E-1
113 93 4.999999842375171E-1
114 3 9.999999751407871E-1
114 11 4.999999590049537E-1
114 68 9.999999991605121E-1
114 78 9.999999840917685E-1
114 109 9.999999963638722E-1
115 67 9.999999966504927E-1
115 83 4.9999999547149865E-1
115 112 4.9999999038770454E-1
115 125 9.999999940608426E-1
116 6 9.999999945018003E-1
116 9 4.999999912750866E-1
116 52 4.999999764007866E-1
116 57 9.999999902437506E-1
116 81 9.999999945007512E-1
116 99 9.999999926184387E-1
116 110 4.999999691458126E-1
117 38 9.999999628337073E-1
117 39 4.999999725075911E-1
117 82 4.999999760295968E-1
117 91 4.99999932293823E-1
117 111 9.999999731389188E-1
117 118 4.9999997776136657E-1
118 14 9.999999923621493E-1
118 48 9.999999860907628E-1
118 82 9.99999999008984E-1
118 103 9.999999737174302E-1
118 117 4.9999997776136657E-1
119 19 4.9999994243583984E-1
119 25 9.999999933008972E-1
119 49 4.999999382446776E-1
119 51 9.999999709360743E-1
119 53 9.999999557233508E-1
119 105 9.999999939504342E-1
120 5 9.999999970478628E-1
120 66 9.999999994183822E-1
120 92 9.999999971524961E-1
120 126 9.999999960893817E-1
121 15 9.999999945973462E-1
121 23 9.999999961524695E-1
121 26 9.999999888031457E-1
121 34 9.999999804484243E-1
122 35 9.999999997548628E-1
122 63 9.999999982518385E-1
122 83 4.999999962357026E-1
122 104 9.99999998197823E-1
122 112 9.999999943500282E-1
122 125 4.999999929237543E-1
123 1 4.9999999422613395E-1
123 22 4.99999997837164E-1
123 41 9.999999965609182E-1
123 88 9.99999999999998E-1
123 92 4.9999999627979813E-1
124 29 9.999999987756074E-1
124 54 9.999999991552695E-1
124 56 9.99999998230117E-1
124 80 9.999999998008425E-1
125 67 9.999999993527899E-1
125 83 9.999999989409939E-1
125 115 9.999999940608426E-1
125 122 4.999999929237543E-1
126 29 4.999999977722056E-1
126 37 4.9999999628373093E-1
126 120 9.999999960893817E-1
126 131 9.999999958291805E-1
127 49 9.999999940233141E-1
127 58 9.99999997253687E-1
127 101 9.999999135339165E-1
127 105 4.9999995965133825E-1
128 13 9.999999995496509E-1
128 16 9.999999982188267E-1
128 18 4.9999999436788806E-1
128 62 4.999999964310858E-1
128 96 9.999999933620715E-1
129 18 4.9999999462730016E-1
129 44 9.999999968360517E-1
129 59 9.999999992701232E-1
129 61 4.999999968342553E-1
129 130 4.999999958378374E-1
130 44 9.999999987540796E-1
130 61 9.999999998481709E-1
130 73 9.999999982762828E-1
130 106 9.999999972228211E-1
130 129 4.999999958378374E-1
131 37 9.999999980465424E-1
131 70 9.999999958221485E-1
131 87 9.999999991276182E-1
131 126 9.999999958291805E-1
132 68 9.99999973017448E-1
132 76 9.999999999059157E-1
132 78 9.999999942861029E-1
132 93 4.9999998381520366E-1
