%%MatrixMarket matrix coordinate real general
%
132 132 2570
1 5 4.9999997780904376E-1
1 12 9.999999684892792E-1
1 22 9.999999703128163E-1
1 41 9.999999783515682E-1
1 45 4.999998347631641E-1
1 52 4.9999988783182386E-1
1 65 9.999999748591678E-1
1 66 4.999999774081803E-1
1 88 9.999999884471648E-1
1 92 9.999999635749248E-1
1 94 4.9999995184539014E-1
1 97 4.999998384839812E-1
1 98 9.999999690032471E-1
1 107 9.999999344063215E-1
1 115 4.9999996591897905E-1
1 120 4.999999720062961E-1
1 123 9.999999884522679E-1
1 126 4.999999553888581E-1
1 131 4.999999532606273E-1
2 6 4.9999996053477797E-1
2 9 9.99999978486435E-1
2 17 4.999999819330994E-1
2 28 4.9999998381709737E-1
2 29 9.999999968719003E-1
2 37 9.999999835163417E-1
2 54 9.999999967171948E-1
2 56 9.999999858508649E-1
2 57 9.999999722099998E-1
2 66 9.999999707786423E-1
2 76 4.9999993021692124E-1
2 80 9.999999930843081E-1
2 81 4.999999643577074E-1
2 84 9.999999995396079E-1
2 85 4.9999998271564605E-1
2 87 9.999999788003108E-1
2 93 4.99999978176775E-1
2 99 4.99999970317936E-1
2 113 9.999999990009224E-1
2 116 4.999999648055208E-1
2 120 9.999999780692722E-1
2 124 9.999999938287403E-1
2 126 9.999999919346756E-1
2 131 9.999999813470914E-1
2 132 4.999999269691388E-1
3 11 9.999999832359571E-1
3 23 4.999998806404814E-1
3 28 4.9999987828637E-1
3 36 9.999998339861497E-1
3 68 9.999999686653438E-1
3 72 9.999998027747904E-1
3 74 4.999998792758058E-1
3 76 9.999999010209337E-1
3 78 9.999999443867365E-1
3 93 4.99999887929912E-1
3 102 9.999998631921634E-1
3 109 9.999999870926581E-1
3 110 4.999999220016639E-1
3 114 9.999999751407871E-1
3 132 9.999999030966008E-1
4 7 9.999999848564808E-1
4 8 9.999999563357631E-1
4 13 4.999999767553103E-1
4 16 4.9999996637639665E-1
4 49 4.999997619625214E-1
4 50 4.9999997047418776E-1
4 55 4.999999570772982E-1
4 58 4.999996772021105E-1
4 60 9.99999940343329E-1
4 62 9.999999762748729E-1
4 73 4.999999590422241E-1
4 75 9.99999991680004E-1
4 77 4.9999997588389616E-1
4 86 9.999999579130364E-1
4 96 4.999999695717119E-1
4 106 4.999999542835019E-1
4 127 4.999997096724137E-1
4 128 4.999999719750514E-1
5 1 4.9999997780904376E-1
5 22 9.999999977109765E-1
5 29 9.999999721378073E-1
5 37 9.999999805491725E-1
5 41 9.9999999071925E-1
5 56 9.999999654232722E-1
5 65 4.999999597411535E-1
5 66 9.999999980962011E-1
5 67 4.99999977475545E-1
5 70 9.999999884567022E-1
5 80 9.999999684837588E-1
5 83 4.9999996407067643E-1
5 87 9.999999855107141E-1
5 88 9.999999892456486E-1
5 92 9.999999993170825E-1
5 98 4.999999276549248E-1
5 115 4.9999998116053795E-1
5 120 9.999999970478628E-1
5 123 9.999999892396833E-1
5 124 4.9999998184233946E-1
5 125 4.9999997194623275E-1
5 126 9.999999885708357E-1
5 131 9.999999909048138E-1
6 2 4.9999996053477797E-1
6 9 9.999999693004032E-1
6 28 4.9999994878294823E-1
6 29 4.999999438414952E-1
6 36 4.99999895859687E-1
6 52 9.999999389495188E-1
6 54 4.99999944251151E-1
6 57 9.999999829391608E-1
6 68 4.9999986468066016E-1
6 72 4.999999096212447E-1
6 78 4.9999990570206404E-1
6 81 9.999999780138289E-1
6 84 4.999999655226404E-1
6 85 9.99999981255118E-1
6 89 4.9999985341064984E-1
6 99 9.999999751006154E-1
6 110 9.999999690154733E-1
6 113 4.9999996165898053E-1
6 116 9.999999945018003E-1
6 126 4.99999945262283E-1
7 4 9.999999848564808E-1
7 8 4.999999449578754E-1
7 13 9.999999885625285E-1
7 16 9.999999741322904E-1
7 18 4.9999997524250267E-1
7 44 4.9999997355056175E-1
7 50 4.9999997688001174E-1
7 60 4.9999993620325234E-1
7 61 9.999999556512881E-1
7 62 9.999999956060442E-1
7 73 9.999999726309694E-1
7 75 9.999999989546111E-1
7 77 9.999999773679564E-1
7 86 9.999999756621106E-1
7 96 9.999999847148374E-1
7 106 9.999999677542376E-1
7 128 9.99999983759776E-1
7 130 9.999999586142458E-1
8 4 9.999999563357631E-1
8 7 4.999999449578754E-1
8 13 4.9999991355652373E-1
8 19 4.9999966891387826E-1
8 25 4.9999989104512216E-1
8 46 9.999998600390773E-1
8 49 4.999998843082772E-1
8 50 4.9999992842988555E-1
8 51 9.999998567347216E-1
8 55 4.999999206219474E-1
8 58 4.999998227734318E-1
8 60 9.999999823049754E-1
8 62 4.9999993815168536E-1
8 64 4.9999991438091324E-1
8 75 4.999999551080959E-1
8 77 4.9999992188094416E-1
8 86 4.999999317816641E-1
8 100 4.999999259782001E-1
8 101 4.999996515836793E-1
8 105 4.999998791872891E-1
8 108 4.999999269399166E-1
8 119 4.999998855455117E-1
8 127 4.9999984696735567E-1
9 2 9.99999978486435E-1
9 6 9.999999693004032E-1
9 12 4.9999994633198774E-1
9 29 4.999999821753075E-1
9 52 4.999999451653882E-1
9 54 4.999999792726932E-1
9 57 9.999999978501353E-1
9 66 4.9999998312308547E-1
9 81 9.999999855136886E-1
9 84 9.999999809576671E-1
9 85 9.99999973543273E-1
9 89 4.999997988216553E-1
9 92 4.999999771656855E-1
9 94 4.999999168059596E-1
9 99 9.999999905577138E-1
9 110 4.9999994216016913E-1
9 113 9.99999974065344E-1
9 116 9.999999825501732E-1
9 120 4.999999846350799E-1
9 126 4.999999865278673E-1
10 21 9.999999546809352E-1
10 24 9.999998566279857E-1
10 30 9.999999995127332E-1
10 35 4.9999993048529734E-1
10 42 9.999998805475421E-1
10 45 4.99999797482614E-1
10 63 4.9999992562429213E-1
10 65 4.99999933661649E-1
10 83 4.999999130889634E-1
10 97 9.999998872620671E-1
10 104 9.999998903863754E-1
10 107 9.999999267567332E-1
10 112 4.9999994804796793E-1
10 115 4.9999990941352174E-1
10 122 4.999999308772594E-1
10 125 4.9999990273988565E-1
11 3 9.999999832359571E-1
11 23 4.9999992696709666E-1
11 34 4.9999991339068167E-1
11 36 9.999999027063523E-1
11 68 9.999999078440838E-1
11 72 9.999998724525918E-1
11 74 9.999998595001861E-1
11 78 9.999998797459733E-1
11 95 9.999998400792727E-1
11 102 9.999999328702815E-1
11 103 4.999999141125508E-1
11 109 9.999999439587205E-1
11 110 4.999999230659285E-1
11 114 9.999999180099074E-1
11 121 4.999999176043198E-1
12 1 9.999999684892792E-1
12 9 4.9999994633198774E-1
12 22 4.9999995059089963E-1
12 41 4.9999995253812396E-1
12 45 4.999998559337106E-1
12 52 9.999998883630001E-1
12 65 4.9999994974576895E-1
12 66 4.9999995028987515E-1
12 81 9.99999927591396E-1
12 88 4.9999996799605156E-1
12 89 4.999998588572286E-1
12 92 4.999999519932651E-1
12 94 9.999999819847207E-1
12 97 4.999997984089352E-1
12 98 9.999999467041137E-1
12 99 9.999999286943357E-1
12 120 4.9999994391768204E-1
12 123 4.9999996799534935E-1
13 4 4.999999767553103E-1
13 7 9.999999885625285E-1
13 8 4.9999991355652373E-1
13 16 9.99999996791361E-1
13 18 9.999999841018739E-1
13 20 4.999999762232996E-1
13 27 4.9999997876729135E-1
13 44 9.999999710132061E-1
13 50 9.999999708480309E-1
13 55 4.999999719942056E-1
13 60 4.99999895007169E-1
13 61 9.999999746756042E-1
13 62 9.999999958852764E-1
13 71 4.999999680551792E-1
13 73 9.999999812614675E-1
13 75 9.999999830182663E-1
13 77 9.999999929963871E-1
13 86 9.999999877152513E-1
13 96 9.99999993373076E-1
13 106 9.999999873494533E-1
13 128 9.999999995496509E-1
13 129 4.999999783545436E-1
13 130 9.999999750158995E-1
14 15 9.999999419926798E-1
14 18 4.999999657401035E-1
14 20 9.999999549164725E-1
14 23 9.999999395268574E-1
14 26 9.999999442588149E-1
14 34 9.999999731433751E-1
14 36 4.9999991510710645E-1
14 39 4.9999987469804075E-1
14 43 9.999999225406025E-1
14 48 9.999999861708064E-1
14 59 4.9999997445552924E-1
14 72 4.9999989772979075E-1
14 74 9.999999114955114E-1
14 82 9.999999921379149E-1
14 95 4.999999514100628E-1
14 102 4.999999377855871E-1
14 103 9.999999598005551E-1
14 111 9.999999306908395E-1
14 117 4.999999555319834E-1
14 118 9.999999923621493E-1
14 121 4.999999539154584E-1
14 129 4.999999680749815E-1
15 14 9.999999419926798E-1
15 18 4.99999965129035E-1
15 23 9.999999969830249E-1
15 26 9.999999984536762E-1
15 34 9.999999935412666E-1
15 44 9.999999533337282E-1
15 48 4.999999530088099E-1
15 59 9.999999754945577E-1
15 61 9.999999443536027E-1
15 73 4.999999593266651E-1
15 96 4.9999994790075925E-1
15 106 4.9999996362584836E-1
15 121 9.999999945973462E-1
15 129 9.999999712859732E-1
15 130 4.9999997014679554E-1
16 4 4.9999996637639665E-1
16 7 9.999999741322904E-1
16 13 9.99999996791361E-1
16 18 9.999999887093958E-1
16 20 9.999999732198173E-1
16 27 9.999999719309822E-1
16 44 4.9999998354568137E-1
16 47 4.999999580473355E-1
16 48 4.999999675091833E-1
16 50 9.999999776170073E-1
16 55 4.999999780181349E-1
16 59 4.999999771795586E-1
16 61 9.999999685619515E-1
16 62 9.999999887973002E-1
16 71 4.999999779141836E-1
16 73 9.999999708552679E-1
16 75 4.999999837150004E-1
16 77 9.999999953192091E-1
16 79 4.999999757429708E-1
16 86 9.999999895416627E-1
16 96 9.999999853682027E-1
16 106 9.999999836227661E-1
16 108 4.9999994643898493E-1
16 128 9.999999982188267E-1
16 129 4.9999997891516196E-1
16 130 9.999999675636612E-1
17 2 4.999999819330994E-1
17 28 9.99999999237234E-1
17 29 4.999999780249361E-1
17 37 4.9999996593202445E-1
17 54 9.99999970633822E-1
17 56 4.999999762456135E-1
17 68 4.9999993093927525E-1
17 76 9.999999598071433E-1
17 78 4.999999614452257E-1
17 80 4.9999997875787777E-1
17 84 4.999999835619808E-1
17 85 9.999999557489317E-1
17 93 9.999999990689051E-1
17 109 4.999999188638482E-1
17 113 9.99999974553461E-1
17 114 4.999999198036228E-1
17 124 4.9999998156669845E-1
17 126 4.99999963025426E-1
17 132 9.999999569371124E-1
18 7 4.9999997524250267E-1
18 13 9.999999841018739E-1
18 14 4.999999657401035E-1
18 15 4.99999965129035E-1
18 16 9.999999887093958E-1
18 20 9.999999768115797E-1
18 23 4.999999509267744E-1
18 26 4.999999743314313E-1
18 34 4.9999996704938543E-1
18 44 9.999999901583763E-1
18 48 9.999999574050791E-1
18 59 9.999999883114659E-1
18 61 9.999999883899487E-1
18 62 9.999999638131091E-1
18 73 9.999999821901483E-1
18 75 4.999999685278722E-1
18 77 9.999999694891748E-1
18 86 4.9999997825907666E-1
18 96 9.999999863094752E-1
18 106 9.999999945412784E-1
18 118 4.999999511083085E-1
18 121 4.999999450664496E-1
18 128 9.999999887357761E-1
18 129 9.999999892546003E-1
18 130 9.999999863619856E-1
19 8 4.9999966891387826E-1
19 25 9.999998550669152E-1
19 32 9.999998074893667E-1
19 33 4.9999981879204924E-1
19 46 4.99999813883731E-1
19 49 9.999997216977202E-1
19 51 4.9999987983375027E-1
19 53 9.99999979784748E-1
19 58 9.999998049407124E-1
19 64 4.999996566917875E-1
19 100 4.9999974636524835E-1
19 101 9.999998409094081E-1
19 105 9.99999893955133E-1
19 119 9.999998848716797E-1
19 127 9.999997681533971E-1
20 13 4.999999762232996E-1
20 14 9.999999549164725E-1
20 16 9.999999732198173E-1
20 18 9.999999768115797E-1
20 27 9.99999961597704E-1
20 38 4.999999082541939E-1
20 40 4.9999991190990484E-1
20 43 9.999999752127184E-1
20 48 9.999999894985014E-1
20 59 9.999999521279136E-1
20 71 9.99999958374022E-1
20 77 4.9999997949790337E-1
20 79 4.9999997193392326E-1
20 82 4.999999692223542E-1
20 86 4.9999997417191416E-1
20 106 4.999999748152127E-1
20 111 9.999999611291733E-1
20 117 4.999999432118319E-1
20 118 9.99999952036491E-1
20 128 4.999999802008554E-1
21 10 9.999999546809352E-1
21 24 9.99999971837964E-1
21 30 9.999999451114111E-1
21 35 9.999999680722886E-1
21 42 9.999999819913047E-1
21 63 9.999999661405797E-1
21 65 4.999999357380165E-1
21 67 4.999999542644108E-1
21 83 9.999999354403889E-1
21 97 4.9999985797279684E-1
21 104 9.999999800913066E-1
21 107 9.999999033407799E-1
21 112 9.99999971933768E-1
21 115 4.999999537084886E-1
21 122 9.999999664353366E-1
21 125 4.9999995938742703E-1
22 1 9.999999703128163E-1
22 5 9.999999977109765E-1
22 12 4.9999995059089963E-1
22 37 4.999999832734651E-1
22 41 9.999999976084171E-1
22 45 4.999997250666119E-1
22 63 4.999999312580872E-1
22 65 4.999999721711035E-1
22 66 9.999999937730553E-1
22 67 9.999999618243093E-1
22 70 9.999999816146327E-1
22 83 4.999999688063583E-1
22 87 9.999999738527706E-1
22 88 9.999999956763302E-1
22 92 9.999999978461228E-1
22 98 4.99999943250034E-1
22 112 4.9999995393304736E-1
22 115 9.999999725512684E-1
22 120 9.999999905103018E-1
22 122 4.9999994416124E-1
22 123 9.99999995674328E-1
22 125 4.9999997562371434E-1
22 126 4.999999880965981E-1
22 131 9.999999804959365E-1
23 3 4.999998806404814E-1
23 11 4.9999992696709666E-1
23 14 9.999999395268574E-1
23 15 9.999999969830249E-1
23 18 4.999999509267744E-1
23 26 9.999999912243104E-1
23 34 9.999999927945081E-1
23 44 4.999999634085681E-1
23 48 4.999999458845972E-1
23 59 9.999999569978785E-1
23 61 4.999999577585531E-1
23 82 9.99999895910431E-1
23 102 4.9999991420861634E-1
23 103 4.9999992991491304E-1
23 106 4.999999476867256E-1
23 118 4.9999994512298784E-1
23 121 9.999999961524695E-1
23 129 9.999999505122387E-1
23 130 4.999999552324612E-1
24 10 9.999998566279857E-1
24 21 9.99999971837964E-1
24 30 4.99999919829635E-1
24 35 9.999999948212911E-1
24 41 4.999999206513353E-1
24 42 9.999999988599811E-1
24 63 9.999999975256839E-1
24 67 9.999999488744553E-1
24 70 4.999999277385153E-1
24 83 9.999999708765831E-1
24 104 9.999999927854745E-1
24 107 4.999999203525864E-1
24 112 9.999999778636139E-1
24 115 4.9999996631012245E-1
24 122 9.99999992334853E-1
24 125 9.999999594916078E-1
25 8 4.9999989104512216E-1
25 19 9.999998550669152E-1
25 32 9.999997589130742E-1
25 33 9.999998413927775E-1
25 46 9.999999431645372E-1
25 49 9.99999822183546E-1
25 51 9.999999880009427E-1
25 53 9.999999420496547E-1
25 58 9.999998093544058E-1
25 64 4.999998937279419E-1
25 100 9.999998815231143E-1
25 101 4.999998295680484E-1
25 105 9.999999746406963E-1
25 108 4.9999989555989177E-1
25 119 9.999999933008972E-1
25 127 9.999998098251112E-1
26 14 9.999999442588149E-1
26 15 9.999999984536762E-1
26 18 4.999999743314313E-1
26 23 9.999999912243104E-1
26 34 9.999999917638056E-1
26 44 9.999999687174602E-1
26 48 4.9999995867493513E-1
26 59 9.999999859433809E-1
26 61 9.999999611830559E-1
26 73 4.999999695382819E-1
26 82 4.9999994777103585E-1
26 96 4.999999597928222E-1
26 106 4.999999734588115E-1
26 118 4.9999994787521185E-1
26 121 9.999999888031457E-1
26 129 9.999999830224201E-1
26 130 9.99999957669591E-1
27 13 4.9999997876729135E-1
27 16 9.999999719309822E-1
27 20 9.99999961597704E-1
27 31 4.9999995622447846E-1
27 40 4.9999993079464644E-1
27 43 4.999999740173907E-1
27 47 9.999999842161703E-1
27 50 9.999999953476029E-1
27 55 9.999999960563125E-1
27 62 9.999999574594467E-1
27 64 9.999999643205776E-1
27 69 4.999999195054562E-1
27 71 9.999999975341372E-1
27 77 9.9999998410338E-1
27 79 9.999999971737772E-1
27 86 9.999999865464281E-1
27 90 9.999999723801059E-1
27 100 4.999999555161523E-1
27 108 9.999999676928197E-1
27 111 4.9999995725058344E-1
27 128 4.999999793244214E-1
28 2 4.9999998381709737E-1
28 3 4.9999987828637E-1
28 6 4.9999994878294823E-1
28 17 9.99999999237234E-1
28 29 4.999999786967278E-1
28 37 4.99999965269697E-1
28 54 9.999999712387695E-1
28 56 4.999999750846304E-1
28 68 4.9999993196040715E-1
28 76 9.999999606558836E-1
28 78 4.9999996281565695E-1
28 80 4.9999997855257E-1
28 84 4.9999998580525123E-1
28 85 9.999999664500208E-1
28 93 9.999999991456052E-1
28 109 4.9999992171003316E-1
28 110 4.9999993275115917E-1
28 113 9.999999779555795E-1
28 114 4.9999992101149404E-1
28 124 4.9999998135571105E-1
28 126 4.999999647441142E-1
28 132 9.999999574702405E-1
29 2 9.999999968719003E-1
29 5 9.999999721378073E-1
29 6 4.999999438414952E-1
29 9 4.999999821753075E-1
29 17 4.999999780249361E-1
29 28 4.999999786967278E-1
29 37 9.999999946761221E-1
29 54 9.999999984832159E-1
29 56 9.999999954965269E-1
29 57 4.999999766768928E-1
29 66 9.999999766476194E-1
29 70 9.999999781590315E-1
29 80 9.999999989914131E-1
29 84 9.999999940865671E-1
29 85 4.999999708877068E-1
29 87 9.999999915265365E-1
29 92 4.9999998408424745E-1
29 93 4.9999997268434176E-1
29 113 9.99999994311574E-1
29 116 4.9999995051230683E-1
29 120 9.99999983434123E-1
29 124 9.999999987756074E-1
29 126 9.999999955444112E-1
29 131 9.999999921008375E-1
30 10 9.999999995127332E-1
30 21 9.999999451114111E-1
30 24 4.99999919829635E-1
30 35 4.9999992201319904E-1
30 42 9.99999865068686E-1
30 45 4.9999980333494204E-1
30 63 4.9999991687350287E-1
30 65 4.999999289795447E-1
30 83 4.9999990393700217E-1
30 97 9.99999897599093E-1
30 98 4.999998941125701E-1
30 104 4.9999993764481954E-1
30 107 9.999999210578648E-1
30 112 4.999999408745271E-1
30 115 4.999999008326133E-1
30 122 4.9999992244363367E-1
31 27 4.9999995622447846E-1
31 32 4.9999977964431536E-1
31 33 9.999998899608928E-1
31 38 4.999999227602816E-1
31 40 9.999999592944199E-1
31 43 4.9999994232248374E-1
31 46 9.999999048086883E-1
31 47 9.999999652727067E-1
31 50 4.999999433150556E-1
31 51 4.999999010528323E-1
31 55 4.9999996350829906E-1
31 64 9.999999695235927E-1
31 69 9.999999821540861E-1
31 71 4.9999996768705496E-1
31 79 9.999999402507936E-1
31 90 9.99999983075809E-1
31 100 9.999999504046883E-1
31 108 9.999999568852151E-1
32 19 9.999998074893667E-1
32 25 9.999997589130742E-1
32 31 4.9999977964431536E-1
32 33 9.999998892582762E-1
32 40 4.999996902360279E-1
32 46 4.999998285589179E-1
32 51 4.999998451844827E-1
32 53 9.999998395724711E-1
32 64 4.9999973064031944E-1
32 69 4.999997842430973E-1
32 90 4.999997043122167E-1
32 100 4.9999979179318205E-1
32 101 4.999996517466664E-1
32 105 9.999996629694224E-1
32 108 4.999997171892503E-1
32 119 9.999997208453356E-1
33 19 4.9999981879204924E-1
33 25 9.999998413927775E-1
33 31 9.999998899608928E-1
33 32 9.999998892582762E-1
33 40 4.9999989267364464E-1
33 46 9.999998831962019E-1
33 47 4.999998866174152E-1
33 51 9.99999845525792E-1
33 53 9.999997618363115E-1
33 64 4.9999991045310593E-1
33 69 9.999998894623295E-1
33 79 4.999998497120802E-1
33 90 4.999999019371535E-1
33 100 4.9999993548489285E-1
33 101 4.9999956241035964E-1
33 105 4.999998487301163E-1
33 108 4.99999900117771E-1
33 119 9.99999775446823E-1
34 11 4.9999991339068167E-1
34 14 9.999999731433751E-1
34 15 9.999999935412666E-1
34 18 4.9999996704938543E-1
34 23 9.999999927945081E-1
34 26 9.999999917638056E-1
34 44 4.9999997135423324E-1
34 48 9.999999402250686E-1
34 59 9.999999738029247E-1
34 61 4.999999656531973E-1
34 74 4.9999992443562524E-1
34 82 9.999999397889903E-1
34 95 4.9999991554124407E-1
34 102 4.9999992251380826E-1
34 103 4.999999501213696E-1
34 106 4.9999995970677286E-1
34 118 9.999999371477452E-1
34 121 9.999999804484243E-1
34 129 9.999999660462543E-1
34 130 4.9999996278557096E-1
35 10 4.9999993048529734E-1
35 21 9.999999680722886E-1
35 24 9.999999948212911E-1
35 30 4.9999992201319904E-1
35 41 4.999999467064718E-1
35 42 9.999999935627756E-1
35 63 9.99999999278668E-1
35 65 4.9999994173756207E-1
35 67 9.99999975456104E-1
35 70 4.999999495041114E-1
35 83 9.999999898366709E-1
35 104 9.999999982461709E-1
35 107 4.999999399831808E-1
35 112 9.999999923842866E-1
35 115 9.999999647901388E-1
35 122 9.999999997548628E-1
35 125 9.999999824121355E-1
36 3 9.999998339861497E-1
36 6 4.99999895859687E-1
36 11 9.999999027063523E-1
36 14 4.9999991510710645E-1
36 39 9.999998081364965E-1
36 72 9.999999970616338E-1
36 74 9.999999817808682E-1
36 82 4.9999993392690156E-1
36 89 4.999998160206475E-1
36 91 9.999998060824389E-1
36 95 9.999999796863489E-1
36 102 9.999999936614927E-1
36 103 9.99999945254964E-1
36 109 4.9999988895277503E-1
36 110 9.999999115663638E-1
36 114 4.9999985874959396E-1
36 117 4.9999990452239684E-1
36 118 4.999999223743854E-1
37 2 9.999999835163417E-1
37 5 9.999999805491725E-1
37 17 4.9999996593202445E-1
37 22 4.999999832734651E-1
37 28 4.99999965269697E-1
37 29 9.999999946761221E-1
37 54 9.999999904507035E-1
37 56 9.999999976758406E-1
37 66 9.999999787568086E-1
37 70 9.999999935305253E-1
37 80 9.99999996721826E-1
37 84 9.999999776079824E-1
37 87 9.999999993896098E-1
37 92 4.99999987236235E-1
37 93 4.999999584103405E-1
37 113 9.999999782157382E-1
37 120 9.999999842812957E-1
37 124 9.999999949825932E-1
37 126 9.999999925674619E-1
37 131 9.999999980465424E-1
38 20 4.999999082541939E-1
38 31 4.999999227602816E-1
38 39 9.99999927808881E-1
38 40 9.999999608557154E-1
38 43 9.99999924612568E-1
38 48 4.9999991779795594E-1
38 69 9.999998950265032E-1
38 71 4.9999990962141905E-1
38 82 4.9999992018959843E-1
38 90 4.999999161498334E-1
38 91 9.999998366604493E-1
38 103 4.999999054559926E-1
38 111 9.999999453791877E-1
38 117 9.999999628337073E-1
38 118 4.9999992635206186E-1
39 14 4.9999987469804075E-1
39 36 9.999998081364965E-1
39 38 9.99999927808881E-1
39 40 4.999998912063888E-1
39 43 4.9999989672646805E-1
39 72 9.999998265112584E-1
39 74 9.999998727564235E-1
39 82 4.999999149940789E-1
39 89 4.9999986836551535E-1
39 91 9.999999800445072E-1
39 95 9.999998908797549E-1
39 102 4.99999888918636E-1
39 103 9.999998709035872E-1
39 111 4.999999232746899E-1
39 117 9.999999450151822E-1
39 118 4.999999129954459E-1
40 20 4.9999991190990484E-1
40 27 4.9999993079464644E-1
40 31 9.999999592944199E-1
40 32 4.999996902360279E-1
40 33 4.9999989267364464E-1
40 38 9.999999608557154E-1
40 39 4.999998912063888E-1
40 43 9.999999253554029E-1
40 47 4.999999494650397E-1
40 55 4.9999992766863355E-1
40 64 4.999999408297615E-1
40 69 9.999999828588234E-1
40 71 4.9999994801876324E-1
40 79 4.999999431416597E-1
40 90 9.99999934861544E-1
40 108 4.999999302188145E-1
40 111 9.999999226549564E-1
40 117 9.999998813889346E-1
41 1 9.999999783515682E-1
41 5 9.9999999071925E-1
41 12 4.9999995253812396E-1
41 22 9.999999976084171E-1
41 24 4.999999206513353E-1
41 35 4.999999467064718E-1
41 45 4.9999975210829395E-1
41 63 4.9999993878463683E-1
41 65 9.999999647062182E-1
41 66 9.999999840540246E-1
41 67 9.999999674361882E-1
41 70 9.9999997177547E-1
41 83 4.999999733553068E-1
41 87 4.9999997935131824E-1
41 88 9.999999965586509E-1
41 92 9.999999912335275E-1
41 97 4.999997950305077E-1
41 98 4.9999995523630897E-1
41 104 4.999999457954447E-1
41 107 4.9999995983851836E-1
41 112 4.9999996312536443E-1
41 115 9.999999807108173E-1
41 120 9.999999786878808E-1
41 122 4.9999995163569216E-1
41 123 9.999999965609182E-1
41 125 4.9999997889530373E-1
41 126 4.999999793734222E-1
41 131 4.9999998306286414E-1
42 10 9.999998805475421E-1
42 21 9.999999819913047E-1
42 24 9.999999988599811E-1
42 30 9.99999865068686E-1
42 35 9.999999935627756E-1
42 63 9.999999954664293E-1
42 65 4.9999992266686466E-1
42 67 4.999999720216289E-1
42 83 9.999999673312528E-1
42 104 9.999999943477978E-1
42 107 4.9999992806469573E-1
42 112 9.99999980436144E-1
42 115 4.999999653112204E-1
42 122 9.999999911602442E-1
42 125 9.999999547281581E-1
43 14 9.999999225406025E-1
43 20 9.999999752127184E-1
43 27 4.999999740173907E-1
43 31 4.9999994232248374E-1
43 38 9.99999924612568E-1
43 39 4.9999989672646805E-1
43 40 9.999999253554029E-1
43 47 9.999999200055761E-1
43 48 9.999999702265457E-1
43 55 4.99999961110199E-1
43 69 4.999999307401775E-1
43 71 9.999999602854407E-1
43 79 9.999999439860153E-1
43 82 9.999999323487897E-1
43 90 9.999999305665198E-1
43 91 4.999998242753625E-1
43 103 4.9999993101907136E-1
43 111 9.999999958378497E-1
43 117 9.999999478417183E-1
43 118 9.999999471764374E-1
44 7 4.9999997355056175E-1
44 13 9.999999710132061E-1
44 15 9.999999533337282E-1
44 16 4.9999998354568137E-1
44 18 9.999999901583763E-1
44 23 4.999999634085681E-1
44 26 9.999999687174602E-1
44 34 4.9999997135423324E-1
44 48 4.999999602451235E-1
44 59 9.999999932194961E-1
44 61 9.999999994545632E-1
44 62 4.999999744361969E-1
44 73 9.999999943340777E-1
44 96 9.999999885792117E-1
44 106 9.999999966611615E-1
44 121 4.9999996323893037E-1
44 128 9.999999748634104E-1
44 129 9.999999968360517E-1
44 130 9.999999987540796E-1
45 1 4.999998347631641E-1
45 10 4.99999797482614E-1
45 12 4.999998559337106E-1
45 22 4.999997250666119E-1
45 30 4.9999980333494204E-1
45 41 4.9999975210829395E-1
45 65 4.9999984976647854E-1
45 88 4.9999976856462824E-1
45 92 4.9999970701324215E-1
45 94 4.999998646174372E-1
45 97 9.99999880714261E-1
45 98 9.999998359680127E-1
45 107 4.999998678989615E-1
45 115 4.99999715127705E-1
45 123 4.999997685850422E-1
46 8 9.999998600390773E-1
46 19 4.99999813883731E-1
46 25 9.999999431645372E-1
46 31 9.999999048086883E-1
46 32 4.999998285589179E-1
46 33 9.999998831962019E-1
46 47 9.999999147503528E-1
46 49 4.999998353894365E-1
46 50 4.999999273651924E-1
46 51 9.999999800420678E-1
46 53 4.999998905203529E-1
46 55 4.999999436419099E-1
46 58 4.999998025212711E-1
46 64 9.999999504369972E-1
46 79 4.9999993646943625E-1
46 90 4.999999517027179E-1
46 100 9.999999887575014E-1
46 101 4.999996726489063E-1
46 105 9.999998578932174E-1
46 108 9.999999517053352E-1
46 119 9.999999041284897E-1
46 127 4.999998121751943E-1
47 16 4.999999580473355E-1
47 27 9.999999842161703E-1
47 31 9.999999652727067E-1
47 33 4.999998866174152E-1
47 40 4.999999494650397E-1
47 43 9.999999200055761E-1
47 46 9.999999147503528E-1
47 50 9.999999768930721E-1
47 51 4.9999990809683026E-1
47 55 9.999999927972165E-1
47 64 9.999999950847446E-1
47 69 4.999999522107033E-1
47 71 9.999999892787476E-1
47 77 4.9999997193936857E-1
47 79 9.999999945664885E-1
47 86 4.999999769955841E-1
47 90 9.999999958256741E-1
47 100 9.999999650464747E-1
47 108 9.999999940270801E-1
48 14 9.999999861708064E-1
48 15 4.999999530088099E-1
48 16 4.999999675091833E-1
48 18 9.999999574050791E-1
48 20 9.999999894985014E-1
48 23 4.999999458845972E-1
48 26 4.9999995867493513E-1
48 34 9.999999402250686E-1
48 38 4.9999991779795594E-1
48 43 9.999999702265457E-1
48 44 4.999999602451235E-1
48 59 4.999999748696672E-1
48 74 4.999999269144902E-1
48 82 9.999999786689622E-1
48 95 4.9999992385975894E-1
48 103 9.999999220586846E-1
48 106 4.9999996113354567E-1
48 111 9.999999686152863E-1
48 117 9.999999252000646E-1
48 118 9.999999860907628E-1
48 121 4.9999992854256625E-1
48 129 4.999999698768386E-1
49 4 4.999997619625214E-1
49 8 4.999998843082772E-1
49 19 9.999997216977202E-1
49 25 9.99999822183546E-1
49 46 4.999998353894365E-1
49 51 9.999997982594669E-1
49 53 9.999997756780166E-1
49 58 9.999999835988901E-1
49 60 9.999997475467561E-1
49 100 4.999997804978581E-1
49 101 9.999998621029029E-1
49 105 9.999999194778766E-1
49 108 4.9999972766145645E-1
49 119 9.999998764893552E-1
49 127 9.999999940233141E-1
50 4 4.9999997047418776E-1
50 7 4.9999997688001174E-1
50 8 4.9999992842988555E-1
50 13 9.999999708480309E-1
50 16 9.999999776170073E-1
50 27 9.999999953476029E-1
50 31 4.999999433150556E-1
50 46 4.999999273651924E-1
50 47 9.999999768930721E-1
50 55 9.999999954914095E-1
50 60 4.999998911876228E-1
50 62 9.999999765697327E-1
50 64 9.999999607009533E-1
50 71 9.999999869087141E-1
50 75 9.999999553887596E-1
50 77 9.999999923283304E-1
50 79 9.999999902300554E-1
50 86 9.999999960953273E-1
50 90 9.999999567333006E-1
50 100 4.9999995755744586E-1
50 108 9.999999682201992E-1
50 128 9.999999694406281E-1
51 8 9.999998567347216E-1
51 19 4.9999987983375027E-1
51 25 9.999999880009427E-1
51 31 4.999999010528323E-1
51 32 4.999998451844827E-1
51 33 9.99999845525792E-1
51 46 9.999999800420678E-1
51 47 4.9999990809683026E-1
51 49 9.999997982594669E-1
51 53 9.999998774522646E-1
51 55 4.999998930162387E-1
51 58 4.99999878871563E-1
51 60 4.999998745935569E-1
51 64 4.9999993491281425E-1
51 90 4.999998980497618E-1
51 100 9.999999394267419E-1
51 101 4.999997769777443E-1
51 105 9.999999444355181E-1
51 108 4.999999374923783E-1
51 119 9.999999709360743E-1
51 127 4.999998844862473E-1
52 1 4.9999988783182386E-1
52 6 9.999999389495188E-1
52 9 4.999999451653882E-1
52 12 9.999998883630001E-1
52 57 4.999999516421056E-1
52 66 4.9999988861534134E-1
52 72 4.999998954391717E-1
52 81 9.999999544109507E-1
52 84 4.999998926222488E-1
52 85 4.9999992769784507E-1
52 89 9.999999070128228E-1
52 91 4.9999985934145236E-1
52 94 9.999999181884145E-1
52 99 9.999999425892813E-1
52 110 9.999998825796131E-1
52 116 9.999999528015732E-1
53 19 9.99999979784748E-1
53 25 9.999999420496547E-1
53 32 9.999998395724711E-1
53 33 9.999997618363115E-1
53 46 4.999998905203529E-1
53 49 9.999997756780166E-1
53 51 9.999998774522646E-1
53 58 9.99999824260929E-1
53 64 4.99999764222079E-1
53 100 4.999998374492708E-1
53 101 9.9999979136593E-1
53 105 9.999999518210632E-1
53 108 4.9999976384673583E-1
53 119 9.999999557233508E-1
53 127 9.999998005083349E-1
54 2 9.999999967171948E-1
54 6 4.99999944251151E-1
54 9 4.999999792726932E-1
54 17 9.99999970633822E-1
54 28 9.999999712387695E-1
54 29 9.999999984832159E-1
54 37 9.999999904507035E-1
54 56 9.999999950241439E-1
54 57 4.999999749988111E-1
54 70 4.999999842652215E-1
54 76 4.999999323096498E-1
54 80 9.999999983332779E-1
54 84 9.999999948322751E-1
54 85 4.9999997414917075E-1
54 87 9.999999854541511E-1
54 93 4.9999998074094465E-1
54 113 9.999999965950189E-1
54 120 4.999999860116306E-1
54 124 9.999999991552695E-1
54 126 9.999999889944207E-1
54 131 9.999999847048036E-1
54 132 4.999999294040632E-1
55 4 4.999999570772982E-1
55 8 4.999999206219474E-1
55 13 4.999999719942056E-1
55 16 4.999999780181349E-1
55 27 9.999999960563125E-1
55 31 4.9999996350829906E-1
55 40 4.9999992766863355E-1
55 43 4.99999961110199E-1
55 46 4.999999436419099E-1
55 47 9.999999927972165E-1
55 50 9.999999954914095E-1
55 51 4.999998930162387E-1
55 60 4.999998750818246E-1
55 62 4.999999758818684E-1
55 64 9.999999816633461E-1
55 69 4.999999245558212E-1
55 71 9.99999993552198E-1
55 77 9.999999765909339E-1
55 79 9.999999977909614E-1
55 86 9.999999831953224E-1
55 90 9.999999796494972E-1
55 100 9.999999430815265E-1
55 108 9.999999854165915E-1
55 111 4.9999994111341706E-1
55 128 4.999999714221822E-1
56 2 9.999999858508649E-1
56 5 9.999999654232722E-1
56 17 4.999999762456135E-1
56 28 4.999999750846304E-1
56 29 9.999999954965269E-1
56 37 9.999999976758406E-1
56 54 9.999999950241439E-1
56 66 4.999999824776398E-1
56 70 9.999999846527842E-1
56 80 9.999999987003932E-1
56 84 9.999999809982834E-1
56 87 9.999999948027728E-1
56 93 4.9999996963230914E-1
56 113 9.999999835525318E-1
56 120 4.9999998639711796E-1
56 124 9.99999998230117E-1
56 126 9.999999871070687E-1
56 131 9.999999917443684E-1
57 2 9.999999722099998E-1
57 6 9.999999829391608E-1
57 9 9.999999978501353E-1
57 29 4.999999766768928E-1
57 52 4.999999516421056E-1
57 54 4.999999749988111E-1
57 66 4.9999997369291904E-1
57 81 9.999999871286243E-1
57 84 9.999999766401637E-1
57 85 9.999999839021871E-1
57 89 4.999998103340284E-1
57 94 4.99999910973108E-1
57 99 9.999999904247605E-1
57 110 4.999999568536593E-1
57 113 4.999999850282636E-1
57 116 9.999999902437506E-1
57 120 4.999999758502431E-1
57 124 4.999999700943917E-1
57 126 4.9999997956808695E-1
58 4 4.999996772021105E-1
58 8 4.999998227734318E-1
58 19 9.999998049407124E-1
58 25 9.999998093544058E-1
58 46 4.999998025212711E-1
58 49 9.999999835988901E-1
58 51 4.99999878871563E-1
58 53 9.99999824260929E-1
58 60 4.999998033272098E-1
58 100 4.999997364345159E-1
58 101 9.999999402040615E-1
58 105 9.999999220236604E-1
58 108 4.999996686807036E-1
58 119 9.999998728515364E-1
58 127 9.99999997253687E-1
59 14 4.9999997445552924E-1
59 15 9.999999754945577E-1
59 16 4.999999771795586E-1
59 18 9.999999883114659E-1
59 20 9.999999521279136E-1
59 23 9.999999569978785E-1
59 26 9.999999859433809E-1
59 34 9.999999738029247E-1
59 44 9.999999932194961E-1
59 48 4.999999748696672E-1
59 61 9.999999888308732E-1
59 73 9.999999753000586E-1
59 82 4.999999513580681E-1
59 96 9.999999680246391E-1
59 106 9.999999851105259E-1
59 118 4.9999995498132754E-1
59 121 4.9999997505023486E-1
59 128 4.999999788360403E-1
59 129 9.999999992701232E-1
59 130 9.999999861731491E-1
60 4 9.99999940343329E-1
60 7 4.9999993620325234E-1
60 8 9.999999823049754E-1
60 13 4.99999895007169E-1
60 49 9.999997475467561E-1
60 50 4.999998911876228E-1
60 51 4.999998745935569E-1
60 55 4.999998750818246E-1
60 58 4.999998033272098E-1
60 62 4.9999992077912514E-1
60 75 4.999999459108522E-1
60 77 4.9999989368787146E-1
60 86 4.9999990227953184E-1
60 96 4.9999988674822576E-1
60 101 4.9999962014239613E-1
60 105 4.9999983244659113E-1
60 108 4.9999987342657265E-1
60 127 4.999998322450897E-1
60 128 4.9999988505759196E-1
61 7 9.999999556512881E-1
61 13 9.999999746756042E-1
61 15 9.999999443536027E-1
61 16 9.999999685619515E-1
61 18 9.999999883899487E-1
61 23 4.999999577585531E-1
61 26 9.999999611830559E-1
61 34 4.999999656531973E-1
61 44 9.999999994545632E-1
61 59 9.999999888308732E-1
61 62 4.999999776394638E-1
61 73 9.999999972823947E-1
61 75 4.99999970498039E-1
61 96 9.999999920605731E-1
61 106 9.999999975601966E-1
61 121 4.9999995847415374E-1
61 128 9.999999775377333E-1
61 129 9.999999936685106E-1
61 130 9.999999998481709E-1
62 4 9.999999762748729E-1
62 7 9.999999956060442E-1
62 8 4.9999993815168536E-1
62 13 9.999999958852764E-1
62 16 9.999999887973002E-1
62 18 9.999999638131091E-1
62 27 9.999999574594467E-1
62 44 4.999999744361969E-1
62 50 9.999999765697327E-1
62 55 4.999999758818684E-1
62 60 4.9999992077912514E-1
62 61 4.999999776394638E-1
62 64 4.9999994136378495E-1
62 73 9.999999683438796E-1
62 75 9.999999940894642E-1
62 77 9.999999929112235E-1
62 79 4.999999688201185E-1
62 86 9.99999991571701E-1
62 96 9.999999846147609E-1
62 106 9.999999713563454E-1
62 108 4.999999497868115E-1
62 128 9.999999928621716E-1
62 130 9.999999568076555E-1
63 10 4.9999992562429213E-1
63 21 9.999999661405797E-1
63 22 4.999999312580872E-1
63 24 9.999999975256839E-1
63 30 4.9999991687350287E-1
63 35 9.99999999278668E-1
63 41 4.9999993878463683E-1
63 42 9.999999954664293E-1
63 65 4.999999322153473E-1
63 67 9.999999688823789E-1
63 70 4.999999449553171E-1
63 83 9.999999853419482E-1
63 104 9.999999963906089E-1
63 112 9.999999871215561E-1
63 115 4.999999776500647E-1
63 122 9.999999982518385E-1
63 125 9.999999770397965E-1
64 8 4.9999991438091324E-1
64 19 4.999996566917875E-1
64 25 4.999998937279419E-1
64 27 9.999999643205776E-1
64 31 9.999999695235927E-1
64 32 4.9999973064031944E-1
64 33 4.9999991045310593E-1
64 40 4.999999408297615E-1
64 46 9.999999504369972E-1
64 47 9.999999950847446E-1
64 50 9.999999607009533E-1
64 51 4.9999993491281425E-1
64 53 4.99999764222079E-1
64 55 9.999999816633461E-1
64 62 4.9999994136378495E-1
64 69 9.999999055084858E-1
64 71 9.999999700341327E-1
64 77 4.999999591516485E-1
64 79 9.99999980279595E-1
64 86 4.999999665676778E-1
64 90 9.999999903437832E-1
64 100 9.999999862890379E-1
64 108 9.99999998905503E-1
65 1 9.999999748591678E-1
65 5 4.999999597411535E-1
65 10 4.99999933661649E-1
65 12 4.9999994974576895E-1
65 21 4.999999357380165E-1
65 22 4.999999721711035E-1
65 30 4.999999289795447E-1
65 35 4.9999994173756207E-1
65 41 9.999999647062182E-1
65 42 4.9999992266686466E-1
65 45 4.9999984976647854E-1
65 63 4.999999322153473E-1
65 66 4.9999995259684005E-1
65 67 4.999999651841986E-1
65 83 4.999999596893655E-1
65 88 9.999999600196188E-1
65 92 4.9999996172101285E-1
65 94 4.999999036039967E-1
65 97 4.9999989766775654E-1
65 98 9.999999720710051E-1
65 104 4.999999485282637E-1
65 107 9.999999894843026E-1
65 112 9.999999340950038E-1
65 115 9.999999572570768E-1
65 122 4.9999994650485785E-1
65 123 9.999999600372914E-1
65 125 4.9999996118868023E-1
66 1 4.999999774081803E-1
66 2 9.999999707786423E-1
66 5 9.999999980962011E-1
66 9 4.9999998312308547E-1
66 12 4.9999995028987515E-1
66 22 9.999999937730553E-1
66 29 9.999999766476194E-1
66 37 9.999999787568086E-1
66 41 9.999999840540246E-1
66 52 4.9999988861534134E-1
66 56 4.999999824776398E-1
66 57 4.9999997369291904E-1
66 65 4.9999995259684005E-1
66 70 9.999999812349488E-1
66 80 9.99999970888473E-1
66 81 4.999999645071969E-1
66 87 9.999999824337843E-1
66 88 9.999999872397645E-1
66 92 9.999999989317203E-1
66 94 4.9999990428455016E-1
66 98 4.9999992495196394E-1
66 99 4.9999997109166605E-1
66 116 4.9999995245504886E-1
66 120 9.999999994183822E-1
66 123 9.999999872308178E-1
66 124 4.999999834364348E-1
66 126 9.9999999249798E-1
66 131 9.999999892920167E-1
67 5 4.99999977475545E-1
67 21 4.999999542644108E-1
67 22 9.999999618243093E-1
67 24 9.999999488744553E-1
67 35 9.99999975456104E-1
67 41 9.999999674361882E-1
67 42 4.999999720216289E-1
67 63 9.999999688823789E-1
67 65 4.999999651841986E-1
67 70 9.999999707890199E-1
67 83 9.99999996880544E-1
67 87 4.9999997411870434E-1
67 88 4.999999714475912E-1
67 92 4.9999997327499845E-1
67 104 9.999999701606834E-1
67 107 4.9999995045929846E-1
67 112 9.999999813939651E-1
67 115 9.999999966504927E-1
67 122 9.999999796824847E-1
67 123 4.9999997145160735E-1
67 125 9.999999993527899E-1
68 3 9.999999686653438E-1
68 6 4.9999986468066016E-1
68 11 9.999999078440838E-1
68 17 4.9999993093927525E-1
68 28 4.9999993196040715E-1
68 76 9.999999706964121E-1
68 78 9.999999902719772E-1
68 85 4.999999067194152E-1
68 93 4.999999409869981E-1
68 102 4.9999986691922754E-1
68 109 9.99999995332377E-1
68 110 4.9999991289097045E-1
68 113 4.999998702909404E-1
68 114 9.999999991605121E-1
68 132 9.99999973017448E-1
69 27 4.999999195054562E-1
69 31 9.999999821540861E-1
69 32 4.999997842430973E-1
69 33 9.999998894623295E-1
69 38 9.999998950265032E-1
69 40 9.999999828588234E-1
69 43 4.999999307401775E-1
69 47 4.999999522107033E-1
69 55 4.999999245558212E-1
69 64 9.999999055084858E-1
69 71 4.999999373730005E-1
69 79 4.9999993711457025E-1
69 90 9.99999939387605E-1
69 100 9.999998778871029E-1
69 108 4.9999994208508003E-1
69 111 4.9999992322903675E-1
70 5 9.999999884567022E-1
70 22 9.999999816146327E-1
70 24 4.999999277385153E-1
70 29 9.999999781590315E-1
70 35 4.999999495041114E-1
70 37 9.999999935305253E-1
70 41 9.9999997177547E-1
70 54 4.999999842652215E-1
70 56 9.999999846527842E-1
70 63 4.999999449553171E-1
70 66 9.999999812349488E-1
70 67 9.999999707890199E-1
70 80 9.999999811005821E-1
70 83 4.999999753992538E-1
70 87 9.999999967747494E-1
70 88 4.9999997974687804E-1
70 92 9.999999822025814E-1
70 115 4.9999998297622567E-1
70 120 9.999999836964221E-1
70 122 4.9999995325020596E-1
70 123 4.9999997974346694E-1
70 124 9.999999771341107E-1
70 125 4.9999998202780616E-1
70 126 4.999999918261631E-1
70 131 9.999999958221485E-1
71 13 4.999999680551792E-1
71 16 4.999999779141836E-1
71 20 9.99999958374022E-1
71 27 9.999999975341372E-1
71 31 4.9999996768705496E-1
71 38 4.9999990962141905E-1
71 40 4.9999994801876324E-1
71 43 9.999999602854407E-1
71 47 9.999999892787476E-1
71 50 9.999999869087141E-1
71 55 9.99999993552198E-1
71 64 9.999999700341327E-1
71 69 4.999999373730005E-1
71 77 9.999999694553782E-1
71 79 9.999999985418557E-1
71 86 9.99999972567952E-1
71 90 9.999999837811858E-1
71 100 4.999999583037816E-1
71 108 9.99999970132777E-1
71 111 4.9999996532545643E-1
71 117 4.9999990914134806E-1
71 128 4.999999691774977E-1
72 3 9.999998027747904E-1
72 6 4.999999096212447E-1
72 11 9.999998724525918E-1
72 14 4.9999989772979075E-1
72 36 9.999999970616338E-1
72 39 9.999998265112584E-1
72 52 4.999998954391717E-1
72 74 9.999999741120558E-1
72 82 4.999999213211687E-1
72 89 4.999998471698688E-1
72 91 9.999998370047345E-1
72 95 9.999999746764224E-1
72 102 9.999999821485894E-1
72 103 9.999999302707533E-1
72 109 4.999998756946675E-1
72 110 9.999999228790869E-1
72 117 4.99999901227382E-1
72 118 4.9999990919971365E-1
73 4 4.999999590422241E-1
73 7 9.999999726309694E-1
73 13 9.999999812614675E-1
73 15 4.999999593266651E-1
73 16 9.999999708552679E-1
73 18 9.999999821901483E-1
73 26 4.999999695382819E-1
73 44 9.999999943340777E-1
73 59 9.999999753000586E-1
73 61 9.999999972823947E-1
73 62 9.999999683438796E-1
73 75 9.999999609469059E-1
73 77 4.999999757856144E-1
73 96 9.999999968756192E-1
73 106 9.999999964450762E-1
73 121 4.9999994440676954E-1
73 128 9.999999819185806E-1
73 129 9.999999827123738E-1
73 130 9.999999982762828E-1
74 3 4.999998792758058E-1
74 11 9.999998595001861E-1
74 14 9.999999114955114E-1
74 34 4.9999992443562524E-1
74 36 9.999999817808682E-1
74 39 9.999998727564235E-1
74 48 4.999999269144902E-1
74 72 9.999999741120558E-1
74 82 9.999999441756554E-1
74 91 9.99999839911042E-1
74 95 9.999999992160342E-1
74 102 9.99999984673195E-1
74 103 9.999999893347116E-1
74 111 4.9999991359209045E-1
74 117 9.999999050659537E-1
74 118 9.999999295684722E-1
75 4 9.99999991680004E-1
75 7 9.999999989546111E-1
75 8 4.999999551080959E-1
75 13 9.999999830182663E-1
75 16 4.999999837150004E-1
75 18 4.999999685278722E-1
75 50 9.999999553887596E-1
75 60 4.999999459108522E-1
75 61 4.99999970498039E-1
75 62 9.999999940894642E-1
75 73 9.999999609469059E-1
75 77 9.999999749952391E-1
75 86 9.999999754382854E-1
75 96 9.999999757704585E-1
75 106 9.999999554090374E-1
75 128 9.999999770636847E-1
75 130 9.99999944415052E-1
76 2 4.9999993021692124E-1
76 3 9.999999010209337E-1
76 17 9.999999598071433E-1
76 28 9.999999606558836E-1
76 54 4.999999323096498E-1
76 68 9.999999706964121E-1
76 78 9.999999936429945E-1
76 84 4.999999356098639E-1
76 85 4.999999570265447E-1
76 93 9.999999702593206E-1
76 109 9.999999572821453E-1
76 110 9.999998704206459E-1
76 113 4.999999414974964E-1
76 114 9.999999599960855E-1
76 132 9.999999999059157E-1
77 4 4.9999997588389616E-1
77 7 9.999999773679564E-1
77 8 4.9999992188094416E-1
77 13 9.999999929963871E-1
77 16 9.999999953192091E-1
77 18 9.999999694891748E-1
77 20 4.9999997949790337E-1
77 27 9.9999998410338E-1
77 47 4.9999997193936857E-1
77 50 9.999999923283304E-1
77 55 9.999999765909339E-1
77 60 4.9999989368787146E-1
77 62 9.999999929112235E-1
77 64 4.999999591516485E-1
77 71 9.999999694553782E-1
77 73 4.999999757856144E-1
77 75 9.999999749952391E-1
77 79 9.999999696745563E-1
77 86 9.999999988540187E-1
77 90 4.999999584859768E-1
77 96 9.999999727834872E-1
77 106 9.99999964622582E-1
77 108 4.9999996479833647E-1
77 128 9.999999923632633E-1
78 3 9.999999443867365E-1
78 6 4.9999990570206404E-1
78 11 9.999998797459733E-1
78 17 4.999999614452257E-1
78 28 4.9999996281565695E-1
78 68 9.999999902719772E-1
78 76 9.999999936429945E-1
78 84 4.9999990928927135E-1
78 85 4.999999432068836E-1
78 93 9.99999938193897E-1
78 109 9.999999838825713E-1
78 110 9.999998750604905E-1
78 113 4.9999991550102896E-1
78 114 9.999999840917685E-1
78 132 9.999999942861029E-1
79 16 4.999999757429708E-1
79 20 4.9999997193392326E-1
79 27 9.999999971737772E-1
79 31 9.999999402507936E-1
79 33 4.999998497120802E-1
79 40 4.999999431416597E-1
79 43 9.999999439860153E-1
79 46 4.9999993646943625E-1
79 47 9.999999945664885E-1
79 50 9.999999902300554E-1
79 55 9.999999977909614E-1
79 62 4.999999688201185E-1
79 64 9.99999980279595E-1
79 69 4.9999993711457025E-1
79 71 9.999999985418557E-1
79 77 9.999999696745563E-1
79 86 9.999999750631923E-1
79 90 9.999999869231758E-1
79 100 4.9999996772147737E-1
79 108 9.999999813139115E-1
79 111 4.9999995487060345E-1
80 2 9.999999930843081E-1
80 5 9.999999684837588E-1
80 17 4.9999997875787777E-1
80 28 4.9999997855257E-1
80 29 9.999999989914131E-1
80 37 9.99999996721826E-1
80 54 9.999999983332779E-1
80 56 9.999999987003932E-1
80 66 9.99999970888473E-1
80 70 9.999999811005821E-1
80 84 9.999999894770617E-1
80 87 9.999999934627277E-1
80 92 4.9999998143473984E-1
80 93 4.9999997293799775E-1
80 113 9.999999909525568E-1
80 120 9.999999783884402E-1
80 124 9.999999998008425E-1
80 126 9.999999921142215E-1
80 131 9.999999922233476E-1
81 2 4.999999643577074E-1
81 6 9.999999780138289E-1
81 9 9.999999855136886E-1
81 12 9.99999927591396E-1
81 52 9.999999544109507E-1
81 57 9.999999871286243E-1
81 66 4.999999645071969E-1
81 84 4.9999996687719456E-1
81 85 9.999999494123113E-1
81 89 4.9999986755637393E-1
81 92 4.9999995817100124E-1
81 94 4.9999995012849535E-1
81 99 9.99999999298799E-1
81 110 4.999999481640588E-1
81 113 4.999999608706308E-1
81 116 9.999999945007512E-1
81 120 4.9999996435264477E-1
81 126 4.999999623375671E-1
82 14 9.999999921379149E-1
82 20 4.999999692223542E-1
82 23 9.99999895910431E-1
82 26 4.9999994777103585E-1
82 34 9.999999397889903E-1
82 36 4.9999993392690156E-1
82 38 4.9999992018959843E-1
82 39 4.999999149940789E-1
82 43 9.999999323487897E-1
82 48 9.999999786689622E-1
82 59 4.999999513580681E-1
82 72 4.999999213211687E-1
82 74 9.999999441756554E-1
82 91 4.9999986589893736E-1
82 95 9.999999401059001E-1
82 102 9.999998994809461E-1
82 103 9.999999822675163E-1
82 111 9.999999491296239E-1
82 117 9.999999520591936E-1
82 118 9.99999999008984E-1
83 5 4.9999996407067643E-1
83 10 4.999999130889634E-1
83 21 9.999999354403889E-1
83 22 4.999999688063583E-1
83 24 9.999999708765831E-1
83 30 4.9999990393700217E-1
83 35 9.999999898366709E-1
83 41 4.999999733553068E-1
83 42 9.999999673312528E-1
83 63 9.999999853419482E-1
83 65 4.999999596893655E-1
83 67 9.99999996880544E-1
83 70 4.999999753992538E-1
83 104 9.999999858193109E-1
83 107 4.999999496001193E-1
83 112 9.999999909716919E-1
83 115 9.999999909429973E-1
83 122 9.999999924714053E-1
83 125 9.999999989409939E-1
84 2 9.999999995396079E-1
84 6 4.999999655226404E-1
84 9 9.999999809576671E-1
84 17 4.999999835619808E-1
84 28 4.9999998580525123E-1
84 29 9.999999940865671E-1
84 37 9.999999776079824E-1
84 52 4.999998926222488E-1
84 54 9.999999948322751E-1
84 56 9.999999809982834E-1
84 57 9.999999766401637E-1
84 76 4.999999356098639E-1
84 78 4.9999990928927135E-1
84 80 9.999999894770617E-1
84 81 4.9999996687719456E-1
84 85 9.999999729175667E-1
84 87 4.999999860464578E-1
84 93 4.999999804548595E-1
84 99 4.999999723692878E-1
84 113 9.999999994229511E-1
84 116 4.99999968579249E-1
84 120 4.9999998654886657E-1
84 124 9.999999906977093E-1
84 126 9.999999882604866E-1
84 131 4.999999875601007E-1
84 132 4.999999324215003E-1
85 2 4.9999998271564605E-1
85 6 9.99999981255118E-1
85 9 9.99999973543273E-1
85 17 9.999999557489317E-1
85 28 9.999999664500208E-1
85 29 4.999999708877068E-1
85 52 4.9999992769784507E-1
85 54 4.9999997414917075E-1
85 57 9.999999839021871E-1
85 68 4.999999067194152E-1
85 76 4.999999570265447E-1
85 78 4.999999432068836E-1
85 81 9.999999494123113E-1
85 84 9.999999729175667E-1
85 93 9.99999959310154E-1
85 99 9.999999527524429E-1
85 109 4.9999990776342623E-1
85 110 9.999999505085074E-1
85 113 9.99999971247956E-1
85 114 4.9999989602023465E-1
85 116 9.999999704365101E-1
85 132 4.9999995413669795E-1
86 4 9.999999579130364E-1
86 7 9.999999756621106E-1
86 8 4.999999317816641E-1
86 13 9.999999877152513E-1
86 16 9.999999895416627E-1
86 18 4.9999997825907666E-1
86 20 4.9999997417191416E-1
86 27 9.999999865464281E-1
86 47 4.999999769955841E-1
86 50 9.999999960953273E-1
86 55 9.999999831953224E-1
86 60 4.9999990227953184E-1
86 62 9.99999991571701E-1
86 64 4.999999665676778E-1
86 71 9.99999972567952E-1
86 75 9.999999754382854E-1
86 77 9.999999988540187E-1
86 79 9.999999750631923E-1
86 90 4.9999996363897586E-1
86 96 4.999999816026905E-1
86 100 4.9999994055414815E-1
86 108 4.9999997208608604E-1
86 128 9.999999860472144E-1
87 2 9.999999788003108E-1
87 5 9.999999855107141E-1
87 22 9.999999738527706E-1
87 29 9.999999915265365E-1
87 37 9.999999993896098E-1
87 41 4.9999997935131824E-1
87 54 9.999999854541511E-1
87 56 9.999999948027728E-1
87 66 9.999999824337843E-1
87 67 4.9999997411870434E-1
87 70 9.999999967747494E-1
87 80 9.999999934627277E-1
87 84 4.999999860464578E-1
87 88 4.9999997498988713E-1
87 92 9.999999796954708E-1
87 113 4.999999859771664E-1
87 120 9.999999868675974E-1
87 123 4.9999997498397025E-1
87 124 9.999999910270911E-1
87 125 4.99999969842515E-1
87 126 9.999999922500755E-1
87 131 9.999999991276182E-1
88 1 9.999999884471648E-1
88 5 9.999999892456486E-1
88 12 4.9999996799605156E-1
88 22 9.999999956763302E-1
88 41 9.999999965586509E-1
88 45 4.9999976856462824E-1
88 65 9.999999600196188E-1
88 66 9.999999872397645E-1
88 67 4.999999714475912E-1
88 70 4.9999997974687804E-1
88 87 4.9999997498988713E-1
88 92 9.999999925656443E-1
88 94 4.9999992553084865E-1
88 97 4.999997912301248E-1
88 98 4.999999615488221E-1
88 107 4.999999545208458E-1
88 115 9.999999612160263E-1
88 120 9.999999813018061E-1
88 123 9.99999999999998E-1
88 126 4.999999801762737E-1
88 131 4.999999801879704E-1
89 6 4.9999985341064984E-1
89 9 4.999997988216553E-1
89 12 4.999998588572286E-1
89 36 4.999998160206475E-1
89 39 4.9999986836551535E-1
89 52 9.999999070128228E-1
89 57 4.999998103340284E-1
89 72 4.999998471698688E-1
89 81 4.9999986755637393E-1
89 91 9.999998615585821E-1
89 94 9.999998281958239E-1
89 95 4.9999980518332005E-1
89 99 4.999998542987735E-1
89 110 4.9999983047330593E-1
89 116 4.999998639898487E-1
90 27 9.999999723801059E-1
90 31 9.99999983075809E-1
90 32 4.999997043122167E-1
90 33 4.999999019371535E-1
90 38 4.999999161498334E-1
90 40 9.99999934861544E-1
90 43 9.999999305665198E-1
90 46 4.999999517027179E-1
90 47 9.999999958256741E-1
90 50 9.999999567333006E-1
90 51 4.999998980497618E-1
90 55 9.999999796494972E-1
90 64 9.999999903437832E-1
90 69 9.99999939387605E-1
90 71 9.999999837811858E-1
90 77 4.999999584859768E-1
90 79 9.999999869231758E-1
90 86 4.9999996363897586E-1
90 100 9.999999577738642E-1
90 108 9.999999850218022E-1
90 111 4.9999994938373954E-1
91 36 9.999998060824389E-1
91 38 9.999998366604493E-1
91 39 9.999999800445072E-1
91 43 4.999998242753625E-1
91 52 4.9999985934145236E-1
91 72 9.999998370047345E-1
91 74 9.99999839911042E-1
91 82 4.9999986589893736E-1
91 89 9.999998615585821E-1
91 95 9.999998615232315E-1
91 102 4.999998779994159E-1
91 103 4.999999048872377E-1
91 111 4.999998599361599E-1
91 117 9.99999864587646E-1
91 118 4.999998602816747E-1
92 1 9.999999635749248E-1
92 5 9.999999993170825E-1
92 9 4.999999771656855E-1
92 12 4.999999519932651E-1
92 22 9.999999978461228E-1
92 29 4.9999998408424745E-1
92 37 4.99999987236235E-1
92 41 9.999999912335275E-1
92 45 4.9999970701324215E-1
92 65 4.9999996172101285E-1
92 66 9.999999989317203E-1
92 67 4.9999997327499845E-1
92 70 9.999999822025814E-1
92 80 4.9999998143473984E-1
92 81 4.9999995817100124E-1
92 87 9.999999796954708E-1
92 88 9.999999925656443E-1
92 94 4.9999990474135053E-1
92 98 4.9999993399020953E-1
92 99 4.999999652037423E-1
92 115 4.999999783966073E-1
92 120 9.999999971524961E-1
92 123 9.999999925595963E-1
92 126 9.999999869590135E-1
92 131 9.999999866213402E-1
93 2 4.99999978176775E-1
93 3 4.99999887929912E-1
93 17 9.999999990689051E-1
93 28 9.999999991456052E-1
93 29 4.9999997268434176E-1
93 37 4.999999584103405E-1
93 54 4.9999998074094465E-1
93 56 4.9999996963230914E-1
93 68 4.999999409869981E-1
93 76 9.999999702593206E-1
93 78 9.99999938193897E-1
93 80 4.9999997293799775E-1
93 84 4.999999804548595E-1
93 85 9.99999959310154E-1
93 109 4.9999993037481005E-1
93 113 4.999999842375171E-1
93 114 4.999999306995828E-1
93 124 4.999999761170635E-1
93 132 9.999999676304073E-1
94 1 4.9999995184539014E-1
94 9 4.999999168059596E-1
94 12 9.999999819847207E-1
94 45 4.999998646174372E-1
94 52 9.999999181884145E-1
94 57 4.99999910973108E-1
94 65 4.999999036039967E-1
94 66 4.9999990428455016E-1
94 81 4.9999995012849535E-1
94 88 4.9999992553084865E-1
94 89 9.999998281958239E-1
94 92 4.9999990474135053E-1
94 98 9.999998976283968E-1
94 99 4.999999472418751E-1
94 116 4.9999992823033146E-1
94 123 4.9999992552876277E-1
95 11 9.999998400792727E-1
95 14 4.999999514100628E-1
95 34 4.9999991554124407E-1
95 36 9.999999796863489E-1
95 39 9.999998908797549E-1
95 48 4.9999992385975894E-1
95 72 9.999999746764224E-1
95 74 9.999999992160342E-1
95 82 9.999999401059001E-1
95 89 4.9999980518332005E-1
95 91 9.999998615232315E-1
95 102 9.999999789454675E-1
95 103 9.99999987353079E-1
95 111 4.999999153819811E-1
95 117 9.999999130897915E-1
95 118 9.999999257857111E-1
96 4 4.999999695717119E-1
96 7 9.999999847148374E-1
96 13 9.99999993373076E-1
96 15 4.9999994790075925E-1
96 16 9.999999853682027E-1
96 18 9.999999863094752E-1
96 26 4.999999597928222E-1
96 44 9.999999885792117E-1
96 59 9.999999680246391E-1
96 60 4.9999988674822576E-1
96 61 9.999999920605731E-1
96 62 9.999999846147609E-1
96 73 9.999999968756192E-1
96 75 9.999999757704585E-1
96 77 9.999999727834872E-1
96 86 4.999999816026905E-1
96 106 9.99999996737775E-1
96 121 4.9999992887648165E-1
96 128 9.999999933620715E-1
96 129 9.999999752876724E-1
96 130 9.999999929151828E-1
97 1 4.999998384839812E-1
97 10 9.999998872620671E-1
97 12 4.999997984089352E-1
97 21 4.9999985797279684E-1
97 30 9.99999897599093E-1
97 41 4.999997950305077E-1
97 45 9.99999880714261E-1
97 65 4.9999989766775654E-1
97 88 4.999997912301248E-1
97 98 9.999998309691436E-1
97 104 4.99999810057459E-1
97 107 4.9999993393270376E-1
97 112 4.999998314873891E-1
97 115 4.999998054642665E-1
97 123 4.9999979125749744E-1
98 1 9.999999690032471E-1
98 5 4.999999276549248E-1
98 12 9.999999467041137E-1
98 22 4.99999943250034E-1
98 30 4.999998941125701E-1
98 41 4.9999995523630897E-1
98 45 9.999998359680127E-1
98 65 9.999999720710051E-1
98 66 4.9999992495196394E-1
98 88 4.999999615488221E-1
98 92 4.9999993399020953E-1
98 94 9.999998976283968E-1
98 97 9.999998309691436E-1
98 107 9.999999605815608E-1
98 115 4.999999331917638E-1
98 123 4.999999615579412E-1
99 2 4.99999970317936E-1
99 6 9.999999751006154E-1
99 9 9.999999905577138E-1
99 12 9.999999286943357E-1
99 52 9.999999425892813E-1
99 57 9.999999904247605E-1
99 66 4.9999997109166605E-1
99 81 9.99999999298799E-1
99 84 4.999999723692878E-1
99 85 9.999999527524429E-1
99 89 4.999998542987735E-1
99 92 4.999999652037423E-1
99 94 4.999999472418751E-1
99 110 4.9999994436789214E-1
99 113 4.9999996674245983E-1
99 116 9.999999926184387E-1
99 120 4.999999710410995E-1
99 126 4.999999691879129E-1
100 8 4.999999259782001E-1
100 19 4.9999974636524835E-1
100 25 9.999998815231143E-1
100 27 4.999999555161523E-1
100 31 9.999999504046883E-1
100 32 4.9999979179318205E-1
100 33 4.9999993548489285E-1
100 46 9.999999887575014E-1
100 47 9.999999650464747E-1
100 49 4.999997804978581E-1
100 50 4.9999995755744586E-1
100 51 9.999999394267419E-1
100 53 4.999998374492708E-1
100 55 9.999999430815265E-1
100 58 4.999997364345159E-1
100 64 9.999999862890379E-1
100 69 9.999998778871029E-1
100 71 4.999999583037816E-1
100 79 4.9999996772147737E-1
100 86 4.9999994055414815E-1
100 90 9.999999577738642E-1
100 101 4.999995829812868E-1
100 105 4.999998840275828E-1
100 108 9.999999859493752E-1
100 119 4.999999136923762E-1
100 127 4.9999974997701624E-1
101 8 4.999996515836793E-1
101 19 9.999998409094081E-1
101 25 4.999998295680484E-1
101 32 4.999996517466664E-1
101 33 4.9999956241035964E-1
101 46 4.999996726489063E-1
101 49 9.999998621029029E-1
101 51 4.999997769777443E-1
101 53 9.9999979136593E-1
101 58 9.999999402040615E-1
101 60 4.9999962014239613E-1
101 100 4.999995829812868E-1
101 105 9.99999813128776E-1
101 119 9.999997461078778E-1
101 127 9.999999135339165E-1
102 3 9.999998631921634E-1
102 11 9.999999328702815E-1
102 14 4.999999377855871E-1
102 23 4.9999991420861634E-1
102 34 4.9999992251380826E-1
102 36 9.999999936614927E-1
102 39 4.99999888918636E-1
102 68 4.9999986691922754E-1
102 72 9.999999821485894E-1
102 74 9.99999984673195E-1
102 82 9.999998994809461E-1
102 91 4.999998779994159E-1
102 95 9.999999789454675E-1
102 103 9.999999602463242E-1
102 109 9.999997983460871E-1
102 110 9.999998795712307E-1
102 114 4.999998708956983E-1
102 117 4.999999079888627E-1
102 118 4.999999392886327E-1
103 11 4.999999141125508E-1
103 14 9.999999598005551E-1
103 23 4.9999992991491304E-1
103 34 4.999999501213696E-1
103 36 9.99999945254964E-1
103 38 4.999999054559926E-1
103 39 9.999998709035872E-1
103 43 4.9999993101907136E-1
103 48 9.999999220586846E-1
103 72 9.999999302707533E-1
103 74 9.999999893347116E-1
103 82 9.999999822675163E-1
103 91 4.999999048872377E-1
103 95 9.99999987353079E-1
103 102 9.999999602463242E-1
103 111 9.999998956985321E-1
103 117 9.999999412094931E-1
103 118 9.999999737174302E-1
104 10 9.999998903863754E-1
104 21 9.999999800913066E-1
104 24 9.999999927854745E-1
104 30 4.9999993764481954E-1
104 35 9.999999982461709E-1
104 41 4.999999457954447E-1
104 42 9.999999943477978E-1
104 63 9.999999963906089E-1
104 65 4.999999485282637E-1
104 67 9.999999701606834E-1
104 83 9.999999858193109E-1
104 97 4.99999810057459E-1
104 107 9.999999002993111E-1
104 112 9.999999957652321E-1
104 115 9.999999632376395E-1
104 122 9.99999998197823E-1
104 125 9.999999770490899E-1
105 8 4.999998791872891E-1
105 19 9.99999893955133E-1
105 25 9.999999746406963E-1
105 32 9.999996629694224E-1
105 33 4.999998487301163E-1
105 46 9.999998578932174E-1
105 49 9.999999194778766E-1
105 51 9.999999444355181E-1
105 53 9.999999518210632E-1
105 58 9.999999220236604E-1
105 60 4.9999983244659113E-1
105 100 4.999998840275828E-1
105 101 9.99999813128776E-1
105 119 9.999999939504342E-1
105 127 9.999999193026765E-1
106 4 4.999999542835019E-1
106 7 9.999999677542376E-1
106 13 9.999999873494533E-1
106 15 4.9999996362584836E-1
106 16 9.999999836227661E-1
106 18 9.999999945412784E-1
106 20 4.999999748152127E-1
106 23 4.999999476867256E-1
106 26 4.999999734588115E-1
106 34 4.9999995970677286E-1
106 44 9.999999966611615E-1
106 48 4.9999996113354567E-1
106 59 9.999999851105259E-1
106 61 9.999999975601966E-1
106 62 9.999999713563454E-1
106 73 9.999999964450762E-1
106 75 9.999999554090374E-1
106 77 9.99999964622582E-1
106 96 9.99999996737775E-1
106 121 4.999999462926651E-1
106 128 9.99999989726008E-1
106 129 9.99999989678557E-1
106 130 9.999999972228211E-1
107 1 9.999999344063215E-1
107 10 9.999999267567332E-1
107 21 9.999999033407799E-1
107 24 4.999999203525864E-1
107 30 9.999999210578648E-1
107 35 4.999999399831808E-1
107 41 4.9999995983851836E-1
107 42 4.9999992806469573E-1
107 45 4.999998678989615E-1
107 65 9.999999894843026E-1
107 67 4.9999995045929846E-1
107 83 4.999999496001193E-1
107 88 4.999999545208458E-1
107 97 4.9999993393270376E-1
107 98 9.999999605815608E-1
107 104 9.999999002993111E-1
107 112 9.99999932595922E-1
107 115 4.999999651746381E-1
107 123 4.9999995453422563E-1
107 125 4.9999994801048947E-1
108 8 4.999999269399166E-1
108 16 4.9999994643898493E-1
108 25 4.9999989555989177E-1
108 27 9.999999676928197E-1
108 31 9.999999568852151E-1
108 32 4.999997171892503E-1
108 33 4.99999900117771E-1
108 40 4.999999302188145E-1
108 46 9.999999517053352E-1
108 47 9.999999940270801E-1
108 49 4.9999972766145645E-1
108 50 9.999999682201992E-1
108 51 4.999999374923783E-1
108 53 4.9999976384673583E-1
108 55 9.999999854165915E-1
108 58 4.999996686807036E-1
108 60 4.9999987342657265E-1
108 62 4.999999497868115E-1
108 64 9.99999998905503E-1
108 69 4.9999994208508003E-1
108 71 9.99999970132777E-1
108 77 4.9999996479833647E-1
108 79 9.999999813139115E-1
108 86 4.9999997208608604E-1
108 90 9.999999850218022E-1
108 100 9.999999859493752E-1
108 119 4.999998626946524E-1
108 127 4.999996879907837E-1
109 3 9.999999870926581E-1
109 11 9.999999439587205E-1
109 17 4.999999188638482E-1
109 28 4.9999992171003316E-1
109 36 4.9999988895277503E-1
109 68 9.99999995332377E-1
109 72 4.999998756946675E-1
109 76 9.999999572821453E-1
109 78 9.999999838825713E-1
109 85 4.9999990776342623E-1
109 93 4.9999993037481005E-1
109 102 9.999997983460871E-1
109 110 4.999999276713106E-1
109 114 9.999999963638722E-1
109 132 9.999999591199316E-1
110 3 4.999999220016639E-1
110 6 9.999999690154733E-1
110 9 4.9999994216016913E-1
110 11 4.999999230659285E-1
110 28 4.9999993275115917E-1
110 36 9.999999115663638E-1
110 52 9.999998825796131E-1
110 57 4.999999568536593E-1
110 68 4.9999991289097045E-1
110 72 9.999999228790869E-1
110 76 9.999998704206459E-1
110 78 9.999998750604905E-1
110 81 4.999999481640588E-1
110 85 9.999999505085074E-1
110 89 4.9999983047330593E-1
110 99 4.9999994436789214E-1
110 102 9.999998795712307E-1
110 109 4.999999276713106E-1
110 114 4.99999907376216E-1
110 116 9.999999382916251E-1
110 132 9.999998649388495E-1
111 14 9.999999306908395E-1
111 20 9.999999611291733E-1
111 27 4.9999995725058344E-1
111 38 9.999999453791877E-1
111 39 4.999999232746899E-1
111 40 9.999999226549564E-1
111 43 9.999999958378497E-1
111 48 9.999999686152863E-1
111 55 4.9999994111341706E-1
111 69 4.9999992322903675E-1
111 71 4.9999996532545643E-1
111 74 4.9999991359209045E-1
111 79 4.9999995487060345E-1
111 82 9.999999491296239E-1
111 90 4.9999994938373954E-1
111 91 4.999998599361599E-1
111 95 4.999999153819811E-1
111 103 9.999998956985321E-1
111 117 9.999999731389188E-1
111 118 9.999999606877525E-1
112 10 4.9999994804796793E-1
112 21 9.99999971933768E-1
112 22 4.9999995393304736E-1
112 24 9.999999778636139E-1
112 30 4.999999408745271E-1
112 35 9.999999923842866E-1
112 41 4.9999996312536443E-1
112 42 9.99999980436144E-1
112 63 9.999999871215561E-1
112 65 9.999999340950038E-1
112 67 9.999999813939651E-1
112 83 9.999999909716919E-1
112 97 4.999998314873891E-1
112 104 9.999999957652321E-1
112 107 9.99999932595922E-1
112 115 9.999999807754091E-1
112 122 9.999999943500282E-1
112 125 9.999999850925093E-1
113 2 9.999999990009224E-1
113 6 4.9999996165898053E-1
113 9 9.99999974065344E-1
113 17 9.99999974553461E-1
113 28 9.999999779555795E-1
113 29 9.99999994311574E-1
113 37 9.999999782157382E-1
113 54 9.999999965950189E-1
113 56 9.999999835525318E-1
113 57 4.999999850282636E-1
113 68 4.999998702909404E-1
113 76 4.999999414974964E-1
113 78 4.9999991550102896E-1
113 80 9.999999909525568E-1
113 81 4.999999608706308E-1
113 84 9.999999994229511E-1
113 85 9.99999971247956E-1
113 87 4.999999859771664E-1
113 93 4.999999842375171E-1
113 99 4.9999996674245983E-1
113 114 4.99999855704571E-1
113 116 4.9999996361584825E-1
113 124 9.99999992571941E-1
113 126 9.999999854760135E-1
113 131 4.999999868247028E-1
113 132 4.999999385298094E-1
114 3 9.999999751407871E-1
114 11 9.999999180099074E-1
114 17 4.999999198036228E-1
114 28 4.9999992101149404E-1
114 36 4.9999985874959396E-1
114 68 9.999999991605121E-1
114 76 9.999999599960855E-1
114 78 9.999999840917685E-1
114 85 4.9999989602023465E-1
114 93 4.999999306995828E-1
114 102 4.999998708956983E-1
114 109 9.999999963638722E-1
114 110 4.99999907376216E-1
114 113 4.99999855704571E-1
114 132 9.999999626815155E-1
115 1 4.9999996591897905E-1
115 5 4.9999998116053795E-1
115 10 4.9999990941352174E-1
115 21 4.999999537084886E-1
115 22 9.999999725512684E-1
115 24 4.9999996631012245E-1
115 30 4.999999008326133E-1
115 35 9.999999647901388E-1
115 41 9.999999807108173E-1
115 42 4.999999653112204E-1
115 45 4.99999715127705E-1
115 63 4.999999776500647E-1
115 65 9.999999572570768E-1
115 67 9.999999966504927E-1
115 70 4.9999998297622567E-1
115 83 9.999999909429973E-1
115 88 9.999999612160263E-1
115 92 4.999999783966073E-1
115 97 4.999998054642665E-1
115 98 4.999999331917638E-1
115 104 9.999999632376395E-1
115 107 4.999999651746381E-1
115 112 9.999999807754091E-1
115 122 9.999999703650824E-1
115 123 9.999999612254907E-1
115 125 9.999999940608426E-1
116 2 4.999999648055208E-1
116 6 9.999999945018003E-1
116 9 9.999999825501732E-1
116 29 4.9999995051230683E-1
116 52 9.999999528015732E-1
116 57 9.999999902437506E-1
116 66 4.9999995245504886E-1
116 81 9.999999945007512E-1
116 84 4.99999968579249E-1
116 85 9.999999704365101E-1
116 89 4.999998639898487E-1
116 94 4.9999992823033146E-1
116 99 9.999999926184387E-1
116 110 9.999999382916251E-1
116 113 4.9999996361584825E-1
116 120 4.999999538957886E-1
116 126 4.9999995614589715E-1
117 14 4.999999555319834E-1
117 20 4.999999432118319E-1
117 36 4.9999990452239684E-1
117 38 9.999999628337073E-1
117 39 9.999999450151822E-1
117 40 9.999998813889346E-1
117 43 9.999999478417183E-1
117 48 9.999999252000646E-1
117 71 4.9999990914134806E-1
117 72 4.99999901227382E-1
117 74 9.999999050659537E-1
117 82 9.999999520591936E-1
117 91 9.99999864587646E-1
117 95 9.999999130897915E-1
117 102 4.999999079888627E-1
117 103 9.999999412094931E-1
117 111 9.999999731389188E-1
117 118 9.999999555227331E-1
118 14 9.999999923621493E-1
118 18 4.999999511083085E-1
118 20 9.99999952036491E-1
118 23 4.9999994512298784E-1
118 26 4.9999994787521185E-1
118 34 9.999999371477452E-1
118 36 4.999999223743854E-1
118 38 4.9999992635206186E-1
118 39 4.999999129954459E-1
118 43 9.999999471764374E-1
118 48 9.999999860907628E-1
118 59 4.9999995498132754E-1
118 72 4.9999990919971365E-1
118 74 9.999999295684722E-1
118 82 9.99999999008984E-1
118 91 4.999998602816747E-1
118 95 9.999999257857111E-1
118 102 4.999999392886327E-1
118 103 9.999999737174302E-1
118 111 9.999999606877525E-1
118 117 9.999999555227331E-1
118 129 4.9999994700483374E-1
119 8 4.999998855455117E-1
119 19 9.999998848716797E-1
119 25 9.999999933008972E-1
119 32 9.999997208453356E-1
119 33 9.99999775446823E-1
119 46 9.999999041284897E-1
119 49 9.999998764893552E-1
119 51 9.999999709360743E-1
119 53 9.999999557233508E-1
119 58 9.999998728515364E-1
119 100 4.999999136923762E-1
119 101 9.999997461078778E-1
119 105 9.999999939504342E-1
119 108 4.999998626946524E-1
119 127 9.999998711187753E-1
120 1 4.999999720062961E-1
120 2 9.999999780692722E-1
120 5 9.999999970478628E-1
120 9 4.999999846350799E-1
120 12 4.9999994391768204E-1
120 22 9.999999905103018E-1
120 29 9.99999983434123E-1
120 37 9.999999842812957E-1
120 41 9.999999786878808E-1
120 54 4.999999860116306E-1
120 56 4.9999998639711796E-1
120 57 4.999999758502431E-1
120 66 9.999999994183822E-1
120 70 9.999999836964221E-1
120 80 9.999999783884402E-1
120 81 4.9999996435264477E-1
120 84 4.9999998654886657E-1
120 87 9.999999868675974E-1
120 88 9.999999813018061E-1
120 92 9.999999971524961E-1
120 99 4.999999710410995E-1
120 116 4.999999538957886E-1
120 123 9.999999812911599E-1
120 124 4.999999874904833E-1
120 126 9.999999960893817E-1
120 131 9.999999927620304E-1
121 11 4.999999176043198E-1
121 14 4.999999539154584E-1
121 15 9.999999945973462E-1
121 18 4.999999450664496E-1
121 23 9.999999961524695E-1
121 26 9.999999888031457E-1
121 34 9.999999804484243E-1
121 44 4.9999996323893037E-1
121 48 4.9999992854256625E-1
121 59 4.9999997505023486E-1
121 61 4.9999995847415374E-1
121 73 4.9999994440676954E-1
121 96 4.9999992887648165E-1
121 106 4.999999462926651E-1
121 129 4.9999997313299227E-1
121 130 4.9999995657606233E-1
122 10 4.999999308772594E-1
122 21 9.999999664353366E-1
122 22 4.9999994416124E-1
122 24 9.99999992334853E-1
122 30 4.9999992244363367E-1
122 35 9.999999997548628E-1
122 41 4.9999995163569216E-1
122 42 9.999999911602442E-1
122 63 9.999999982518385E-1
122 65 4.9999994650485785E-1
122 67 9.999999796824847E-1
122 70 4.9999995325020596E-1
122 83 9.999999924714053E-1
122 104 9.99999998197823E-1
122 112 9.999999943500282E-1
122 115 9.999999703650824E-1
122 125 9.999999858475086E-1
123 1 9.999999884522679E-1
123 5 9.999999892396833E-1
123 12 4.9999996799534935E-1
123 22 9.99999995674328E-1
123 41 9.999999965609182E-1
123 45 4.999997685850422E-1
123 65 9.999999600372914E-1
123 66 9.999999872308178E-1
123 67 4.9999997145160735E-1
123 70 4.9999997974346694E-1
123 87 4.9999997498397025E-1
123 88 9.99999999999998E-1
123 92 9.999999925595963E-1
123 94 4.9999992552876277E-1
123 97 4.9999979125749744E-1
123 98 4.999999615579412E-1
123 107 4.9999995453422563E-1
123 115 9.999999612254907E-1
123 120 9.999999812911599E-1
123 126 4.9999998016864083E-1
123 131 4.999999801821699E-1
124 2 9.999999938287403E-1
124 5 4.9999998184233946E-1
124 17 4.9999998156669845E-1
124 28 4.9999998135571105E-1
124 29 9.999999987756074E-1
124 37 9.999999949825932E-1
124 54 9.999999991552695E-1
124 56 9.99999998230117E-1
124 57 4.999999700943917E-1
124 66 4.999999834364348E-1
124 70 9.999999771341107E-1
124 80 9.999999998008425E-1
124 84 9.999999906977093E-1
124 87 9.999999910270911E-1
124 93 4.999999761170635E-1
124 113 9.99999992571941E-1
124 120 4.999999874904833E-1
124 126 9.999999903322466E-1
124 131 9.999999895596439E-1
125 5 4.9999997194623275E-1
125 10 4.9999990273988565E-1
125 21 4.9999995938742703E-1
125 22 4.9999997562371434E-1
125 24 9.999999594916078E-1
125 35 9.999999824121355E-1
125 41 4.9999997889530373E-1
125 42 9.999999547281581E-1
125 63 9.999999770397965E-1
125 65 4.9999996118868023E-1
125 67 9.999999993527899E-1
125 70 4.9999998202780616E-1
125 83 9.999999989409939E-1
125 87 4.99999969842515E-1
125 104 9.999999770490899E-1
125 107 4.9999994801048947E-1
125 112 9.999999850925093E-1
125 115 9.999999940608426E-1
125 122 9.999999858475086E-1
126 1 4.999999553888581E-1
126 2 9.999999919346756E-1
126 5 9.999999885708357E-1
126 6 4.99999945262283E-1
126 9 4.999999865278673E-1
126 17 4.99999963025426E-1
126 22 4.999999880965981E-1
126 28 4.999999647441142E-1
126 29 9.999999955444112E-1
126 37 9.999999925674619E-1
126 41 4.999999793734222E-1
126 54 9.999999889944207E-1
126 56 9.999999871070687E-1
126 57 4.9999997956808695E-1
126 66 9.9999999249798E-1
126 70 4.999999918261631E-1
126 80 9.999999921142215E-1
126 81 4.999999623375671E-1
126 84 9.999999882604866E-1
126 87 9.999999922500755E-1
126 88 4.999999801762737E-1
126 92 9.999999869590135E-1
126 99 4.999999691879129E-1
126 113 9.999999854760135E-1
126 116 4.9999995614589715E-1
126 120 9.999999960893817E-1
126 123 4.9999998016864083E-1
126 124 9.999999903322466E-1
126 131 9.999999958291805E-1
127 4 4.999997096724137E-1
127 8 4.9999984696735567E-1
127 19 9.999997681533971E-1
127 25 9.999998098251112E-1
127 46 4.999998121751943E-1
127 49 9.999999940233141E-1
127 51 4.999998844862473E-1
127 53 9.999998005083349E-1
127 58 9.99999997253687E-1
127 60 4.999998322450897E-1
127 100 4.9999974997701624E-1
127 101 9.999999135339165E-1
127 105 9.999999193026765E-1
127 108 4.999996879907837E-1
127 119 9.999998711187753E-1
128 4 4.999999719750514E-1
128 7 9.99999983759776E-1
128 13 9.999999995496509E-1
128 16 9.999999982188267E-1
128 18 9.999999887357761E-1
128 20 4.999999802008554E-1
128 27 4.999999793244214E-1
128 44 9.999999748634104E-1
128 50 9.999999694406281E-1
128 55 4.999999714221822E-1
128 59 4.999999788360403E-1
128 60 4.9999988505759196E-1
128 61 9.999999775377333E-1
128 62 9.999999928621716E-1
128 71 4.999999691774977E-1
128 73 9.999999819185806E-1
128 75 9.999999770636847E-1
128 77 9.999999923632633E-1
128 86 9.999999860472144E-1
128 96 9.999999933620715E-1
128 106 9.99999989726008E-1
128 129 4.99999981473163E-1
128 130 9.999999773936826E-1
129 13 4.999999783545436E-1
129 14 4.999999680749815E-1
129 15 9.999999712859732E-1
129 16 4.9999997891516196E-1
129 18 9.999999892546003E-1
129 23 9.999999505122387E-1
129 26 9.999999830224201E-1
129 34 9.999999660462543E-1
129 44 9.999999968360517E-1
129 48 4.999999698768386E-1
129 59 9.999999992701232E-1
129 61 9.999999936685106E-1
129 73 9.999999827123738E-1
129 96 9.999999752876724E-1
129 106 9.99999989678557E-1
129 118 4.9999994700483374E-1
129 121 4.9999997313299227E-1
129 128 4.99999981473163E-1
129 130 9.999999916756748E-1
130 7 9.999999586142458E-1
130 13 9.999999750158995E-1
130 15 4.9999997014679554E-1
130 16 9.999999675636612E-1
130 18 9.999999863619856E-1
130 23 4.999999552324612E-1
130 26 9.99999957669591E-1
130 34 4.9999996278557096E-1
130 44 9.999999987540796E-1
130 59 9.999999861731491E-1
130 61 9.999999998481709E-1
130 62 9.999999568076555E-1
130 73 9.999999982762828E-1
130 75 9.99999944415052E-1
130 96 9.999999929151828E-1
130 106 9.999999972228211E-1
130 121 4.9999995657606233E-1
130 128 9.999999773936826E-1
130 129 9.999999916756748E-1
131 1 4.999999532606273E-1
131 2 9.999999813470914E-1
131 5 9.999999909048138E-1
131 22 9.999999804959365E-1
131 29 9.999999921008375E-1
131 37 9.999999980465424E-1
131 41 4.9999998306286414E-1
131 54 9.999999847048036E-1
131 56 9.999999917443684E-1
131 66 9.999999892920167E-1
131 70 9.999999958221485E-1
131 80 9.999999922233476E-1
131 84 4.999999875601007E-1
131 87 9.999999991276182E-1
131 88 4.999999801879704E-1
131 92 9.999999866213402E-1
131 113 4.999999868247028E-1
131 120 9.999999927620304E-1
131 123 4.999999801821699E-1
131 124 9.999999895596439E-1
131 126 9.999999958291805E-1
132 2 4.999999269691388E-1
132 3 9.999999030966008E-1
132 17 9.999999569371124E-1
132 28 9.999999574702405E-1
132 54 4.999999294040632E-1
132 68 9.99999973017448E-1
132 76 9.999999999059157E-1
132 78 9.999999942861029E-1
132 84 4.999999324215003E-1
132 85 4.9999995413669795E-1
132 93 9.999999676304073E-1
132 109 9.999999591199316E-1
132 110 9.999998649388495E-1
132 113 4.999999385298094E-1
132 114 9.999999626815155E-1
