%%MatrixMarket matrix coordinate real general
%
132 132 1676
1 5 4.9999997780904376E-1
1 12 9.999999684892792E-1
1 22 4.9999998515640814E-1
1 41 9.999999783515682E-1
1 45 4.999998347631641E-1
1 65 9.999999748591678E-1
1 66 4.999999774081803E-1
1 88 9.999999884471648E-1
1 92 4.999999817874624E-1
1 94 4.9999995184539014E-1
1 97 4.999998384839812E-1
1 98 9.999999690032471E-1
1 107 4.9999996720316076E-1
1 123 9.999999884522679E-1
2 9 4.999999892432175E-1
2 17 4.999999819330994E-1
2 28 4.9999998381709737E-1
2 29 9.999999968719003E-1
2 37 4.9999999175817084E-1
2 54 9.999999967171948E-1
2 56 9.999999858508649E-1
2 57 4.999999861049999E-1
2 80 9.999999930843081E-1
2 81 4.999999643577074E-1
2 84 9.999999995396079E-1
2 85 4.9999998271564605E-1
2 93 4.99999978176775E-1
2 113 9.999999990009224E-1
2 116 4.999999648055208E-1
2 124 9.999999938287403E-1
2 126 9.999999919346756E-1
2 131 4.999999906735457E-1
3 11 9.999999832359571E-1
3 36 9.999998339861497E-1
3 68 9.999999686653438E-1
3 76 9.999999010209337E-1
3 78 9.999999443867365E-1
3 102 4.999999315960817E-1
3 109 9.999999870926581E-1
3 110 4.999999220016639E-1
3 114 9.999999751407871E-1
3 132 9.999999030966008E-1
4 7 9.999999848564808E-1
4 8 9.999999563357631E-1
4 13 4.999999767553103E-1
4 50 4.9999997047418776E-1
4 60 9.99999940343329E-1
4 62 9.999999762748729E-1
4 75 9.99999991680004E-1
4 77 4.9999997588389616E-1
4 86 4.999999789565182E-1
4 128 4.999999719750514E-1
5 1 4.9999997780904376E-1
5 22 9.999999977109765E-1
5 41 9.9999999071925E-1
5 66 9.999999980962011E-1
5 70 9.999999884567022E-1
5 87 4.9999999275535706E-1
5 88 9.999999892456486E-1
5 92 9.999999993170825E-1
5 120 9.999999970478628E-1
5 123 9.999999892396833E-1
5 126 4.9999999428541786E-1
5 131 9.999999909048138E-1
6 9 9.999999693004032E-1
6 52 9.999999389495188E-1
6 57 9.999999829391608E-1
6 81 9.999999780138289E-1
6 84 4.999999655226404E-1
6 85 9.99999981255118E-1
6 89 4.9999985341064984E-1
6 99 9.999999751006154E-1
6 110 9.999999690154733E-1
6 113 4.9999996165898053E-1
6 116 9.999999945018003E-1
7 4 9.999999848564808E-1
7 8 4.999999449578754E-1
7 13 9.999999885625285E-1
7 16 9.999999741322904E-1
7 60 4.9999993620325234E-1
7 62 9.999999956060442E-1
7 73 4.999999863154847E-1
7 75 9.999999989546111E-1
7 77 9.999999773679564E-1
7 86 9.999999756621106E-1
7 96 9.999999847148374E-1
7 128 9.99999983759776E-1
8 4 9.999999563357631E-1
8 7 4.999999449578754E-1
8 46 4.9999993001953863E-1
8 49 4.999998843082772E-1
8 50 4.9999992842988555E-1
8 51 9.999998567347216E-1
8 58 4.999998227734318E-1
8 60 9.999999823049754E-1
8 62 4.9999993815168536E-1
8 75 4.999999551080959E-1
8 86 4.999999317816641E-1
8 108 4.999999269399166E-1
8 127 4.9999984696735567E-1
9 2 4.999999892432175E-1
9 6 9.999999693004032E-1
9 52 4.999999451653882E-1
9 57 9.999999978501353E-1
9 81 9.999999855136886E-1
9 84 9.999999809576671E-1
9 85 9.99999973543273E-1
9 94 4.999999168059596E-1
9 99 9.999999905577138E-1
9 110 4.9999994216016913E-1
9 113 4.99999987032672E-1
9 116 9.999999825501732E-1
9 126 4.999999865278673E-1
10 21 9.999999546809352E-1
10 30 9.999999995127332E-1
10 35 4.9999993048529734E-1
10 42 4.9999994027377104E-1
10 45 4.99999797482614E-1
10 65 4.99999933661649E-1
10 97 9.999998872620671E-1
10 104 4.999999451931877E-1
10 107 9.999999267567332E-1
10 112 4.9999994804796793E-1
10 122 4.999999308772594E-1
11 3 9.999999832359571E-1
11 23 4.9999992696709666E-1
11 36 9.999999027063523E-1
11 68 9.999999078440838E-1
11 72 9.999998724525918E-1
11 74 4.9999992975009305E-1
11 78 4.9999993987298663E-1
11 102 9.999999328702815E-1
11 109 9.999999439587205E-1
11 114 9.999999180099074E-1
12 1 9.999999684892792E-1
12 22 4.9999995059089963E-1
12 41 4.9999995253812396E-1
12 45 4.999998559337106E-1
12 52 4.9999994418150007E-1
12 81 4.99999963795698E-1
12 88 4.9999996799605156E-1
12 89 4.999998588572286E-1
12 92 4.999999519932651E-1
12 94 9.999999819847207E-1
12 98 9.999999467041137E-1
12 99 4.9999996434716787E-1
12 123 4.9999996799534935E-1
13 4 4.999999767553103E-1
13 7 9.999999885625285E-1
13 16 9.99999996791361E-1
13 18 9.999999841018739E-1
13 44 4.999999855066031E-1
13 50 4.9999998542401547E-1
13 60 4.99999895007169E-1
13 61 4.999999873378021E-1
13 62 9.999999958852764E-1
13 73 4.9999999063073375E-1
13 75 9.999999830182663E-1
13 77 9.999999929963871E-1
13 86 9.999999877152513E-1
13 96 9.99999993373076E-1
13 106 9.999999873494533E-1
13 128 9.999999995496509E-1
13 130 4.999999875079498E-1
14 15 9.999999419926798E-1
14 20 9.999999549164725E-1
14 23 9.999999395268574E-1
14 26 4.9999997212940744E-1
14 34 9.999999731433751E-1
14 48 9.999999861708064E-1
14 59 4.9999997445552924E-1
14 74 4.999999557477557E-1
14 82 9.999999921379149E-1
14 95 4.999999514100628E-1
14 102 4.999999377855871E-1
14 103 9.999999598005551E-1
14 111 4.9999996534541974E-1
14 117 4.999999555319834E-1
14 118 9.999999923621493E-1
14 121 4.999999539154584E-1
15 14 9.999999419926798E-1
15 23 9.999999969830249E-1
15 26 9.999999984536762E-1
15 34 9.999999935412666E-1
15 44 4.999999766668641E-1
15 59 9.999999754945577E-1
15 61 4.9999997217680137E-1
15 121 9.999999945973462E-1
15 129 9.999999712859732E-1
15 130 4.9999997014679554E-1
16 7 9.999999741322904E-1
16 13 9.99999996791361E-1
16 18 9.999999887093958E-1
16 20 4.9999998660990863E-1
16 27 4.999999859654911E-1
16 50 9.999999776170073E-1
16 62 9.999999887973002E-1
16 75 4.999999837150004E-1
16 77 9.999999953192091E-1
16 86 9.999999895416627E-1
16 96 9.999999853682027E-1
16 106 4.9999999181138305E-1
16 128 9.999999982188267E-1
17 2 4.999999819330994E-1
17 28 9.99999999237234E-1
17 54 4.99999985316911E-1
17 68 4.9999993093927525E-1
17 76 9.999999598071433E-1
17 78 4.999999614452257E-1
17 80 4.9999997875787777E-1
17 84 4.999999835619808E-1
17 85 4.999999778744659E-1
17 93 9.999999990689051E-1
17 113 4.999999872767305E-1
17 114 4.999999198036228E-1
17 124 4.9999998156669845E-1
17 132 9.999999569371124E-1
18 13 9.999999841018739E-1
18 16 9.999999887093958E-1
18 20 4.9999998840578985E-1
18 26 4.999999743314313E-1
18 44 9.999999901583763E-1
18 48 4.9999997870253954E-1
18 59 9.999999883114659E-1
18 61 9.999999883899487E-1
18 73 4.9999999109507415E-1
18 96 9.999999863094752E-1
18 106 9.999999945412784E-1
18 128 9.999999887357761E-1
18 129 9.999999892546003E-1
18 130 9.999999863619856E-1
19 25 9.999998550669152E-1
19 32 9.999998074893667E-1
19 49 4.999998608488601E-1
19 51 4.9999987983375027E-1
19 53 9.99999979784748E-1
19 58 9.999998049407124E-1
19 101 9.999998409094081E-1
19 105 9.99999893955133E-1
19 119 9.999998848716797E-1
19 127 9.999997681533971E-1
20 14 9.999999549164725E-1
20 16 4.9999998660990863E-1
20 18 4.9999998840578985E-1
20 27 4.99999980798852E-1
20 43 9.999999752127184E-1
20 48 9.999999894985014E-1
20 71 4.99999979187011E-1
20 77 4.9999997949790337E-1
20 82 4.999999692223542E-1
20 111 9.999999611291733E-1
20 118 4.999999760182455E-1
20 128 4.999999802008554E-1
21 10 9.999999546809352E-1
21 24 9.99999971837964E-1
21 30 9.999999451114111E-1
21 35 9.999999680722886E-1
21 42 9.999999819913047E-1
21 63 9.999999661405797E-1
21 83 4.9999996772019445E-1
21 97 4.9999985797279684E-1
21 104 9.999999800913066E-1
21 112 4.99999985966884E-1
21 122 4.999999832176683E-1
22 1 4.9999998515640814E-1
22 5 9.999999977109765E-1
22 12 4.9999995059089963E-1
22 41 9.999999976084171E-1
22 65 4.999999721711035E-1
22 66 9.999999937730553E-1
22 70 9.999999816146327E-1
22 88 9.999999956763302E-1
22 92 9.999999978461228E-1
22 98 4.99999943250034E-1
22 115 4.999999862756342E-1
22 120 9.999999905103018E-1
22 123 9.99999995674328E-1
22 126 4.999999880965981E-1
22 131 4.9999999024796826E-1
23 11 4.9999992696709666E-1
23 14 9.999999395268574E-1
23 15 9.999999969830249E-1
23 26 9.999999912243104E-1
23 34 9.999999927945081E-1
23 44 4.999999634085681E-1
23 59 4.9999997849893923E-1
23 61 4.999999577585531E-1
23 121 9.999999961524695E-1
23 129 4.9999997525611933E-1
23 130 4.999999552324612E-1
24 21 9.99999971837964E-1
24 35 9.999999948212911E-1
24 42 9.999999988599811E-1
24 63 9.999999975256839E-1
24 67 4.9999997443722766E-1
24 83 9.999999708765831E-1
24 104 9.999999927854745E-1
24 112 9.999999778636139E-1
24 122 9.99999992334853E-1
24 125 9.999999594916078E-1
25 19 9.999998550669152E-1
25 32 4.999998794565371E-1
25 33 9.999998413927775E-1
25 46 9.999999431645372E-1
25 49 9.99999822183546E-1
25 51 9.999999880009427E-1
25 53 9.999999420496547E-1
25 58 4.999999046772029E-1
25 100 4.999999407615571E-1
25 101 4.999998295680484E-1
25 105 9.999999746406963E-1
25 119 9.999999933008972E-1
25 127 9.999998098251112E-1
26 14 4.9999997212940744E-1
26 15 9.999999984536762E-1
26 18 4.999999743314313E-1
26 23 9.999999912243104E-1
26 34 9.999999917638056E-1
26 44 4.999999843587301E-1
26 59 9.999999859433809E-1
26 61 4.9999998059152795E-1
26 121 9.999999888031457E-1
26 129 9.999999830224201E-1
26 130 4.999999788347955E-1
27 16 4.999999859654911E-1
27 20 4.99999980798852E-1
27 43 4.999999740173907E-1
27 47 9.999999842161703E-1
27 50 9.999999953476029E-1
27 55 9.999999960563125E-1
27 64 4.999999821602888E-1
27 71 9.999999975341372E-1
27 77 9.9999998410338E-1
27 79 9.999999971737772E-1
27 86 9.999999865464281E-1
27 90 9.999999723801059E-1
27 108 9.999999676928197E-1
28 2 4.9999998381709737E-1
28 17 9.99999999237234E-1
28 54 4.9999998561938475E-1
28 68 4.9999993196040715E-1
28 76 9.999999606558836E-1
28 78 4.9999996281565695E-1
28 84 4.9999998580525123E-1
28 85 9.999999664500208E-1
28 93 9.999999991456052E-1
28 109 4.9999992171003316E-1
28 113 9.999999779555795E-1
28 114 4.9999992101149404E-1
28 124 4.9999998135571105E-1
28 132 9.999999574702405E-1
29 2 9.999999968719003E-1
29 37 9.999999946761221E-1
29 54 9.999999984832159E-1
29 56 9.999999954965269E-1
29 80 9.999999989914131E-1
29 84 9.999999940865671E-1
29 87 4.9999999576326826E-1
29 113 9.99999994311574E-1
29 120 4.999999917170615E-1
29 124 9.999999987756074E-1
29 126 9.999999955444112E-1
29 131 9.999999921008375E-1
30 10 9.999999995127332E-1
30 21 9.999999451114111E-1
30 35 4.9999992201319904E-1
30 42 4.99999932534343E-1
30 45 4.9999980333494204E-1
30 65 4.999999289795447E-1
30 97 9.99999897599093E-1
30 104 4.9999993764481954E-1
30 107 9.999999210578648E-1
30 112 4.999999408745271E-1
30 122 4.9999992244363367E-1
31 33 4.999999449804464E-1
31 38 4.999999227602816E-1
31 40 9.999999592944199E-1
31 46 4.9999995240434414E-1
31 47 9.999999652727067E-1
31 55 4.9999996350829906E-1
31 64 9.999999695235927E-1
31 69 9.999999821540861E-1
31 71 4.9999996768705496E-1
31 79 4.999999701253968E-1
31 90 9.99999983075809E-1
31 100 9.999999504046883E-1
31 108 9.999999568852151E-1
32 19 9.999998074893667E-1
32 25 4.999998794565371E-1
32 33 9.999998892582762E-1
32 46 4.999998285589179E-1
32 51 4.999998451844827E-1
32 53 9.999998395724711E-1
32 69 4.999997842430973E-1
32 100 4.9999979179318205E-1
32 105 4.999998314847112E-1
32 119 4.999998604226678E-1
33 25 9.999998413927775E-1
33 31 4.999999449804464E-1
33 32 9.999998892582762E-1
33 46 4.9999994159810096E-1
33 51 9.99999845525792E-1
33 64 4.9999991045310593E-1
33 69 9.999998894623295E-1
33 90 4.999999019371535E-1
33 100 4.9999993548489285E-1
33 108 4.99999900117771E-1
34 14 9.999999731433751E-1
34 15 9.999999935412666E-1
34 23 9.999999927945081E-1
34 26 9.999999917638056E-1
34 44 4.9999997135423324E-1
34 48 9.999999402250686E-1
34 59 9.999999738029247E-1
34 82 9.999999397889903E-1
34 118 4.999999685738726E-1
34 121 9.999999804484243E-1
34 129 4.9999998302312715E-1
35 10 4.9999993048529734E-1
35 21 9.999999680722886E-1
35 24 9.999999948212911E-1
35 30 4.9999992201319904E-1
35 42 9.999999935627756E-1
35 63 9.99999999278668E-1
35 67 9.99999975456104E-1
35 83 9.999999898366709E-1
35 104 9.999999982461709E-1
35 112 9.999999923842866E-1
35 115 4.999999823950694E-1
35 122 9.999999997548628E-1
35 125 9.999999824121355E-1
36 3 9.999998339861497E-1
36 11 9.999999027063523E-1
36 72 9.999999970616338E-1
36 74 9.999999817808682E-1
36 82 4.9999993392690156E-1
36 91 4.9999990304121944E-1
36 95 9.999999796863489E-1
36 102 9.999999936614927E-1
36 103 9.99999945254964E-1
36 110 9.999999115663638E-1
36 118 4.999999223743854E-1
37 2 4.9999999175817084E-1
37 29 9.999999946761221E-1
37 54 9.999999904507035E-1
37 56 9.999999976758406E-1
37 70 9.999999935305253E-1
37 80 9.99999996721826E-1
37 84 4.999999888039912E-1
37 87 9.999999993896098E-1
37 113 4.999999891078691E-1
37 120 9.999999842812957E-1
37 124 9.999999949825932E-1
37 126 9.999999925674619E-1
37 131 9.999999980465424E-1
38 31 4.999999227602816E-1
38 39 9.99999927808881E-1
38 40 9.999999608557154E-1
38 43 4.99999962306284E-1
38 69 9.999998950265032E-1
38 82 4.9999992018959843E-1
38 91 9.999998366604493E-1
38 111 9.999999453791877E-1
38 117 9.999999628337073E-1
38 118 4.9999992635206186E-1
39 38 9.99999927808881E-1
39 72 9.999998265112584E-1
39 74 9.999998727564235E-1
39 82 4.999999149940789E-1
39 89 4.9999986836551535E-1
39 91 9.999999800445072E-1
39 95 9.999998908797549E-1
39 103 4.999999354517936E-1
39 111 4.999999232746899E-1
39 117 9.999999450151822E-1
39 118 4.999999129954459E-1
40 31 9.999999592944199E-1
40 38 9.999999608557154E-1
40 43 4.9999996267770147E-1
40 47 4.999999494650397E-1
40 64 4.999999408297615E-1
40 69 9.999999828588234E-1
40 71 4.9999994801876324E-1
40 79 4.999999431416597E-1
40 90 4.99999967430772E-1
40 111 9.999999226549564E-1
41 1 9.999999783515682E-1
41 5 9.9999999071925E-1
41 12 4.9999995253812396E-1
41 22 9.999999976084171E-1
41 65 4.999999823531091E-1
41 66 9.999999840540246E-1
41 67 4.999999837180941E-1
41 70 4.99999985887735E-1
41 88 9.999999965586509E-1
41 92 9.999999912335275E-1
41 98 4.9999995523630897E-1
41 107 4.9999995983851836E-1
41 115 9.999999807108173E-1
41 120 4.999999893439404E-1
41 123 9.999999965609182E-1
42 10 4.9999994027377104E-1
42 21 9.999999819913047E-1
42 24 9.999999988599811E-1
42 30 4.99999932534343E-1
42 35 9.999999935627756E-1
42 63 9.999999954664293E-1
42 67 4.999999720216289E-1
42 83 9.999999673312528E-1
42 104 9.999999943477978E-1
42 112 9.99999980436144E-1
42 122 9.999999911602442E-1
42 125 4.9999997736407903E-1
43 20 9.999999752127184E-1
43 27 4.999999740173907E-1
43 38 4.99999962306284E-1
43 40 4.9999996267770147E-1
43 48 9.999999702265457E-1
43 71 4.9999998014272035E-1
43 79 4.9999997199300766E-1
43 82 4.9999996617439485E-1
43 90 4.999999652832599E-1
43 111 9.999999958378497E-1
43 117 9.999999478417183E-1
43 118 9.999999471764374E-1
44 13 4.999999855066031E-1
44 15 4.999999766668641E-1
44 18 9.999999901583763E-1
44 23 4.999999634085681E-1
44 26 4.999999843587301E-1
44 34 4.9999997135423324E-1
44 59 9.999999932194961E-1
44 61 9.999999994545632E-1
44 73 9.999999943340777E-1
44 96 9.999999885792117E-1
44 106 9.999999966611615E-1
44 121 4.9999996323893037E-1
44 128 4.999999874317052E-1
44 129 9.999999968360517E-1
44 130 9.999999987540796E-1
45 1 4.999998347631641E-1
45 10 4.99999797482614E-1
45 12 4.999998559337106E-1
45 30 4.9999980333494204E-1
45 65 4.9999984976647854E-1
45 94 4.999998646174372E-1
45 97 9.99999880714261E-1
45 98 4.9999991798400634E-1
45 107 4.999998678989615E-1
45 123 4.999997685850422E-1
46 8 4.9999993001953863E-1
46 25 9.999999431645372E-1
46 31 4.9999995240434414E-1
46 32 4.999998285589179E-1
46 33 4.9999994159810096E-1
46 47 4.999999573751764E-1
46 51 9.999999800420678E-1
46 53 4.999998905203529E-1
46 55 4.999999436419099E-1
46 64 4.999999752184986E-1
46 90 4.999999517027179E-1
46 100 9.999999887575014E-1
46 101 4.999996726489063E-1
46 105 4.999999289466087E-1
46 108 4.999999758526676E-1
46 119 9.999999041284897E-1
47 27 9.999999842161703E-1
47 31 9.999999652727067E-1
47 40 4.999999494650397E-1
47 46 4.999999573751764E-1
47 50 9.999999768930721E-1
47 55 9.999999927972165E-1
47 64 9.999999950847446E-1
47 69 4.999999522107033E-1
47 71 9.999999892787476E-1
47 79 9.999999945664885E-1
47 90 9.999999958256741E-1
47 100 9.999999650464747E-1
47 108 9.999999940270801E-1
48 14 9.999999861708064E-1
48 18 4.9999997870253954E-1
48 20 9.999999894985014E-1
48 34 9.999999402250686E-1
48 43 9.999999702265457E-1
48 59 4.999999748696672E-1
48 82 9.999999786689622E-1
48 103 4.999999610293423E-1
48 111 9.999999686152863E-1
48 117 4.999999626000323E-1
48 118 9.999999860907628E-1
48 129 4.999999698768386E-1
49 8 4.999998843082772E-1
49 19 4.999998608488601E-1
49 25 9.99999822183546E-1
49 51 4.9999989912973347E-1
49 53 4.999998878390083E-1
49 58 9.999999835988901E-1
49 60 4.9999987377337807E-1
49 101 9.999998621029029E-1
49 105 9.999999194778766E-1
49 119 9.999998764893552E-1
49 127 9.999999940233141E-1
50 4 4.9999997047418776E-1
50 8 4.9999992842988555E-1
50 13 4.9999998542401547E-1
50 16 9.999999776170073E-1
50 27 9.999999953476029E-1
50 47 9.999999768930721E-1
50 55 9.999999954914095E-1
50 60 4.999998911876228E-1
50 62 9.999999765697327E-1
50 64 4.9999998035047666E-1
50 71 9.999999869087141E-1
50 77 9.999999923283304E-1
50 79 9.999999902300554E-1
50 86 9.999999960953273E-1
50 90 4.999999783666503E-1
50 108 4.999999841100996E-1
51 8 9.999998567347216E-1
51 19 4.9999987983375027E-1
51 25 9.999999880009427E-1
51 32 4.999998451844827E-1
51 33 9.99999845525792E-1
51 46 9.999999800420678E-1
51 49 4.9999989912973347E-1
51 53 9.999998774522646E-1
51 58 4.99999878871563E-1
51 64 4.9999993491281425E-1
51 100 9.999999394267419E-1
51 101 4.999997769777443E-1
51 105 9.999999444355181E-1
51 108 4.999999374923783E-1
51 119 9.999999709360743E-1
51 127 4.999998844862473E-1
52 6 9.999999389495188E-1
52 9 4.999999451653882E-1
52 12 4.9999994418150007E-1
52 57 4.999999516421056E-1
52 81 9.999999544109507E-1
52 89 9.999999070128228E-1
52 94 9.999999181884145E-1
52 99 9.999999425892813E-1
52 110 9.999998825796131E-1
52 116 9.999999528015732E-1
53 19 9.99999979784748E-1
53 25 9.999999420496547E-1
53 32 9.999998395724711E-1
53 46 4.999998905203529E-1
53 49 4.999998878390083E-1
53 51 9.999998774522646E-1
53 58 9.99999824260929E-1
53 101 9.9999979136593E-1
53 105 9.999999518210632E-1
53 119 9.999999557233508E-1
53 127 9.999998005083349E-1
54 2 9.999999967171948E-1
54 17 4.99999985316911E-1
54 28 4.9999998561938475E-1
54 29 9.999999984832159E-1
54 37 9.999999904507035E-1
54 56 9.999999950241439E-1
54 80 9.999999983332779E-1
54 84 9.999999948322751E-1
54 87 4.9999999272707557E-1
54 93 4.9999998074094465E-1
54 113 9.999999965950189E-1
54 124 9.999999991552695E-1
54 126 9.999999889944207E-1
55 27 9.999999960563125E-1
55 31 4.9999996350829906E-1
55 46 4.999999436419099E-1
55 47 9.999999927972165E-1
55 50 9.999999954914095E-1
55 64 9.999999816633461E-1
55 71 9.99999993552198E-1
55 77 9.999999765909339E-1
55 79 9.999999977909614E-1
55 86 9.999999831953224E-1
55 90 9.999999796494972E-1
55 100 4.9999997154076326E-1
55 108 9.999999854165915E-1
56 2 9.999999858508649E-1
56 29 9.999999954965269E-1
56 37 9.999999976758406E-1
56 54 9.999999950241439E-1
56 70 9.999999846527842E-1
56 80 9.999999987003932E-1
56 84 4.999999904991417E-1
56 87 9.999999948027728E-1
56 113 4.999999917762659E-1
56 124 9.99999998230117E-1
56 126 4.9999999355353436E-1
56 131 9.999999917443684E-1
57 2 4.999999861049999E-1
57 6 9.999999829391608E-1
57 9 9.999999978501353E-1
57 52 4.999999516421056E-1
57 81 9.999999871286243E-1
57 84 4.9999998832008186E-1
57 85 9.999999839021871E-1
57 99 9.999999904247605E-1
57 110 4.999999568536593E-1
57 113 4.999999850282636E-1
57 116 9.999999902437506E-1
57 126 4.9999997956808695E-1
58 8 4.999998227734318E-1
58 19 9.999998049407124E-1
58 25 4.999999046772029E-1
58 49 9.999999835988901E-1
58 51 4.99999878871563E-1
58 53 9.99999824260929E-1
58 101 9.999999402040615E-1
58 105 9.999999220236604E-1
58 119 9.999998728515364E-1
58 127 9.99999997253687E-1
59 14 4.9999997445552924E-1
59 15 9.999999754945577E-1
59 18 9.999999883114659E-1
59 23 4.9999997849893923E-1
59 26 9.999999859433809E-1
59 34 9.999999738029247E-1
59 44 9.999999932194961E-1
59 48 4.999999748696672E-1
59 61 9.999999888308732E-1
59 73 9.999999753000586E-1
59 106 9.999999851105259E-1
59 121 4.9999997505023486E-1
59 129 9.999999992701232E-1
59 130 9.999999861731491E-1
60 4 9.99999940343329E-1
60 7 4.9999993620325234E-1
60 8 9.999999823049754E-1
60 13 4.99999895007169E-1
60 49 4.9999987377337807E-1
60 50 4.999998911876228E-1
60 62 4.9999992077912514E-1
60 75 4.999999459108522E-1
60 77 4.9999989368787146E-1
60 86 4.9999990227953184E-1
60 96 4.9999988674822576E-1
61 13 4.999999873378021E-1
61 15 4.9999997217680137E-1
61 18 9.999999883899487E-1
61 23 4.999999577585531E-1
61 26 4.9999998059152795E-1
61 44 9.999999994545632E-1
61 59 9.999999888308732E-1
61 73 9.999999972823947E-1
61 96 9.999999920605731E-1
61 106 9.999999975601966E-1
61 121 4.9999995847415374E-1
61 128 4.9999998876886664E-1
61 129 9.999999936685106E-1
61 130 9.999999998481709E-1
62 4 9.999999762748729E-1
62 7 9.999999956060442E-1
62 8 4.9999993815168536E-1
62 13 9.999999958852764E-1
62 16 9.999999887973002E-1
62 50 9.999999765697327E-1
62 60 4.9999992077912514E-1
62 75 9.999999940894642E-1
62 77 9.999999929112235E-1
62 86 9.99999991571701E-1
62 96 4.9999999230738046E-1
62 128 9.999999928621716E-1
63 21 9.999999661405797E-1
63 24 9.999999975256839E-1
63 35 9.99999999278668E-1
63 42 9.999999954664293E-1
63 67 9.999999688823789E-1
63 83 9.999999853419482E-1
63 104 9.999999963906089E-1
63 112 9.999999871215561E-1
63 122 9.999999982518385E-1
63 125 9.999999770397965E-1
64 27 4.999999821602888E-1
64 31 9.999999695235927E-1
64 33 4.9999991045310593E-1
64 40 4.999999408297615E-1
64 46 4.999999752184986E-1
64 47 9.999999950847446E-1
64 50 4.9999998035047666E-1
64 51 4.9999993491281425E-1
64 55 9.999999816633461E-1
64 69 4.999999527542429E-1
64 71 9.999999700341327E-1
64 79 9.99999980279595E-1
64 90 9.999999903437832E-1
64 100 9.999999862890379E-1
64 108 9.99999998905503E-1
65 1 9.999999748591678E-1
65 10 4.99999933661649E-1
65 22 4.999999721711035E-1
65 30 4.999999289795447E-1
65 41 4.999999823531091E-1
65 45 4.9999984976647854E-1
65 67 4.999999651841986E-1
65 88 4.999999800098094E-1
65 97 4.9999989766775654E-1
65 98 9.999999720710051E-1
65 107 9.999999894843026E-1
65 112 4.999999670475019E-1
65 115 4.999999786285384E-1
65 123 4.999999800186457E-1
66 1 4.999999774081803E-1
66 5 9.999999980962011E-1
66 22 9.999999937730553E-1
66 41 9.999999840540246E-1
66 70 4.999999906174744E-1
66 81 4.999999645071969E-1
66 87 4.9999999121689215E-1
66 88 9.999999872397645E-1
66 92 9.999999989317203E-1
66 99 4.9999997109166605E-1
66 120 9.999999994183822E-1
66 123 9.999999872308178E-1
66 126 9.9999999249798E-1
66 131 4.9999999464600836E-1
67 24 4.9999997443722766E-1
67 35 9.99999975456104E-1
67 41 4.999999837180941E-1
67 42 4.999999720216289E-1
67 63 9.999999688823789E-1
67 65 4.999999651841986E-1
67 70 4.9999998539450996E-1
67 83 9.99999996880544E-1
67 104 9.999999701606834E-1
67 112 9.999999813939651E-1
67 115 9.999999966504927E-1
67 122 9.999999796824847E-1
67 125 9.999999993527899E-1
68 3 9.999999686653438E-1
68 11 9.999999078440838E-1
68 17 4.9999993093927525E-1
68 28 4.9999993196040715E-1
68 76 9.999999706964121E-1
68 78 9.999999902719772E-1
68 93 4.999999409869981E-1
68 109 9.99999995332377E-1
68 114 9.999999991605121E-1
68 132 9.99999973017448E-1
69 31 9.999999821540861E-1
69 32 4.999997842430973E-1
69 33 9.999998894623295E-1
69 38 9.999998950265032E-1
69 40 9.999999828588234E-1
69 47 4.999999522107033E-1
69 64 4.999999527542429E-1
69 71 4.999999373730005E-1
69 90 4.999999696938025E-1
69 100 4.9999993894355144E-1
69 108 4.9999994208508003E-1
70 5 9.999999884567022E-1
70 22 9.999999816146327E-1
70 37 9.999999935305253E-1
70 41 4.99999985887735E-1
70 56 9.999999846527842E-1
70 66 4.999999906174744E-1
70 67 4.9999998539450996E-1
70 87 9.999999967747494E-1
70 92 9.999999822025814E-1
70 115 4.9999998297622567E-1
70 120 9.999999836964221E-1
70 125 4.9999998202780616E-1
70 126 4.999999918261631E-1
70 131 9.999999958221485E-1
71 20 4.99999979187011E-1
71 27 9.999999975341372E-1
71 31 4.9999996768705496E-1
71 40 4.9999994801876324E-1
71 43 4.9999998014272035E-1
71 47 9.999999892787476E-1
71 50 9.999999869087141E-1
71 55 9.99999993552198E-1
71 64 9.999999700341327E-1
71 69 4.999999373730005E-1
71 77 4.999999847276891E-1
71 79 9.999999985418557E-1
71 86 4.99999986283976E-1
71 90 9.999999837811858E-1
71 100 4.999999583037816E-1
71 108 9.99999970132777E-1
71 111 4.9999996532545643E-1
72 11 9.999998724525918E-1
72 36 9.999999970616338E-1
72 39 9.999998265112584E-1
72 74 9.999999741120558E-1
72 82 4.999999213211687E-1
72 89 4.999998471698688E-1
72 91 9.999998370047345E-1
72 95 9.999999746764224E-1
72 102 9.999999821485894E-1
72 103 9.999999302707533E-1
72 110 9.999999228790869E-1
73 7 4.999999863154847E-1
73 13 4.9999999063073375E-1
73 18 4.9999999109507415E-1
73 44 9.999999943340777E-1
73 59 9.999999753000586E-1
73 61 9.999999972823947E-1
73 75 4.9999998047345295E-1
73 96 9.999999968756192E-1
73 106 9.999999964450762E-1
73 128 9.999999819185806E-1
73 129 9.999999827123738E-1
73 130 9.999999982762828E-1
74 11 4.9999992975009305E-1
74 14 4.999999557477557E-1
74 36 9.999999817808682E-1
74 39 9.999998727564235E-1
74 72 9.999999741120558E-1
74 82 9.999999441756554E-1
74 91 4.99999919955521E-1
74 95 9.999999992160342E-1
74 102 9.99999984673195E-1
74 103 9.999999893347116E-1
74 117 4.9999995253297685E-1
74 118 9.999999295684722E-1
75 4 9.99999991680004E-1
75 7 9.999999989546111E-1
75 8 4.999999551080959E-1
75 13 9.999999830182663E-1
75 16 4.999999837150004E-1
75 60 4.999999459108522E-1
75 62 9.999999940894642E-1
75 73 4.9999998047345295E-1
75 77 9.999999749952391E-1
75 86 9.999999754382854E-1
75 96 4.9999998788522926E-1
75 128 4.9999998853184235E-1
76 3 9.999999010209337E-1
76 17 9.999999598071433E-1
76 28 9.999999606558836E-1
76 68 9.999999706964121E-1
76 78 9.999999936429945E-1
76 85 4.999999570265447E-1
76 93 9.999999702593206E-1
76 109 9.999999572821453E-1
76 114 9.999999599960855E-1
76 132 9.999999999059157E-1
77 4 4.9999997588389616E-1
77 7 9.999999773679564E-1
77 13 9.999999929963871E-1
77 16 9.999999953192091E-1
77 20 4.9999997949790337E-1
77 27 9.9999998410338E-1
77 50 9.999999923283304E-1
77 55 9.999999765909339E-1
77 60 4.9999989368787146E-1
77 62 9.999999929112235E-1
77 71 4.999999847276891E-1
77 75 9.999999749952391E-1
77 79 4.9999998483727814E-1
77 86 9.999999988540187E-1
77 128 9.999999923632633E-1
78 3 9.999999443867365E-1
78 11 4.9999993987298663E-1
78 17 4.999999614452257E-1
78 28 4.9999996281565695E-1
78 68 9.999999902719772E-1
78 76 9.999999936429945E-1
78 85 4.999999432068836E-1
78 93 4.999999690969485E-1
78 109 9.999999838825713E-1
78 114 9.999999840917685E-1
78 132 9.999999942861029E-1
79 27 9.999999971737772E-1
79 31 4.999999701253968E-1
79 40 4.999999431416597E-1
79 43 4.9999997199300766E-1
79 47 9.999999945664885E-1
79 50 9.999999902300554E-1
79 55 9.999999977909614E-1
79 64 9.99999980279595E-1
79 71 9.999999985418557E-1
79 77 4.9999998483727814E-1
79 86 4.9999998753159614E-1
79 90 9.999999869231758E-1
79 100 4.9999996772147737E-1
79 108 9.999999813139115E-1
80 2 9.999999930843081E-1
80 17 4.9999997875787777E-1
80 29 9.999999989914131E-1
80 37 9.99999996721826E-1
80 54 9.999999983332779E-1
80 56 9.999999987003932E-1
80 84 4.9999999473853085E-1
80 87 9.999999934627277E-1
80 113 9.999999909525568E-1
80 124 9.999999998008425E-1
80 126 9.999999921142215E-1
80 131 9.999999922233476E-1
81 2 4.999999643577074E-1
81 6 9.999999780138289E-1
81 9 9.999999855136886E-1
81 12 4.99999963795698E-1
81 52 9.999999544109507E-1
81 57 9.999999871286243E-1
81 66 4.999999645071969E-1
81 84 4.9999996687719456E-1
81 85 4.9999997470615565E-1
81 89 4.9999986755637393E-1
81 94 4.9999995012849535E-1
81 99 9.99999999298799E-1
81 110 4.999999481640588E-1
81 116 9.999999945007512E-1
82 14 9.999999921379149E-1
82 20 4.999999692223542E-1
82 34 9.999999397889903E-1
82 36 4.9999993392690156E-1
82 38 4.9999992018959843E-1
82 39 4.999999149940789E-1
82 43 4.9999996617439485E-1
82 48 9.999999786689622E-1
82 72 4.999999213211687E-1
82 74 9.999999441756554E-1
82 95 9.999999401059001E-1
82 102 4.9999994974047307E-1
82 103 9.999999822675163E-1
82 111 9.999999491296239E-1
82 117 9.999999520591936E-1
82 118 9.99999999008984E-1
83 21 4.9999996772019445E-1
83 24 9.999999708765831E-1
83 35 9.999999898366709E-1
83 42 9.999999673312528E-1
83 63 9.999999853419482E-1
83 67 9.99999996880544E-1
83 104 9.999999858193109E-1
83 112 9.999999909716919E-1
83 115 9.999999909429973E-1
83 122 9.999999924714053E-1
83 125 9.999999989409939E-1
84 2 9.999999995396079E-1
84 6 4.999999655226404E-1
84 9 9.999999809576671E-1
84 17 4.999999835619808E-1
84 28 4.9999998580525123E-1
84 29 9.999999940865671E-1
84 37 4.999999888039912E-1
84 54 9.999999948322751E-1
84 56 4.999999904991417E-1
84 57 4.9999998832008186E-1
84 80 4.9999999473853085E-1
84 81 4.9999996687719456E-1
84 85 4.9999998645878335E-1
84 93 4.999999804548595E-1
84 99 4.999999723692878E-1
84 113 9.999999994229511E-1
84 116 4.99999968579249E-1
84 124 9.999999906977093E-1
84 126 4.999999941302433E-1
85 2 4.9999998271564605E-1
85 6 9.99999981255118E-1
85 9 9.99999973543273E-1
85 17 4.999999778744659E-1
85 28 9.999999664500208E-1
85 57 9.999999839021871E-1
85 76 4.999999570265447E-1
85 78 4.999999432068836E-1
85 81 4.9999997470615565E-1
85 84 4.9999998645878335E-1
85 93 9.99999959310154E-1
85 99 4.9999997637622146E-1
85 110 4.999999752542537E-1
85 113 4.99999985623978E-1
85 116 9.999999704365101E-1
85 132 4.9999995413669795E-1
86 4 4.999999789565182E-1
86 7 9.999999756621106E-1
86 8 4.999999317816641E-1
86 13 9.999999877152513E-1
86 16 9.999999895416627E-1
86 27 9.999999865464281E-1
86 50 9.999999960953273E-1
86 55 9.999999831953224E-1
86 60 4.9999990227953184E-1
86 62 9.99999991571701E-1
86 71 4.99999986283976E-1
86 75 9.999999754382854E-1
86 77 9.999999988540187E-1
86 79 4.9999998753159614E-1
86 128 9.999999860472144E-1
87 5 4.9999999275535706E-1
87 29 4.9999999576326826E-1
87 37 9.999999993896098E-1
87 54 4.9999999272707557E-1
87 56 9.999999948027728E-1
87 66 4.9999999121689215E-1
87 70 9.999999967747494E-1
87 80 9.999999934627277E-1
87 120 9.999999868675974E-1
87 124 9.999999910270911E-1
87 126 9.999999922500755E-1
87 131 9.999999991276182E-1
88 1 9.999999884471648E-1
88 5 9.999999892456486E-1
88 12 4.9999996799605156E-1
88 22 9.999999956763302E-1
88 41 9.999999965586509E-1
88 65 4.999999800098094E-1
88 66 9.999999872397645E-1
88 92 9.999999925656443E-1
88 94 4.9999992553084865E-1
88 98 4.999999615488221E-1
88 107 4.999999545208458E-1
88 115 4.9999998060801315E-1
88 120 4.9999999065090306E-1
88 123 9.99999999999998E-1
88 131 4.999999801879704E-1
89 6 4.9999985341064984E-1
89 12 4.999998588572286E-1
89 39 4.9999986836551535E-1
89 52 9.999999070128228E-1
89 72 4.999998471698688E-1
89 81 4.9999986755637393E-1
89 91 9.999998615585821E-1
89 94 4.9999991409791195E-1
89 99 4.999998542987735E-1
89 116 4.999998639898487E-1
90 27 9.999999723801059E-1
90 31 9.99999983075809E-1
90 33 4.999999019371535E-1
90 40 4.99999967430772E-1
90 43 4.999999652832599E-1
90 46 4.999999517027179E-1
90 47 9.999999958256741E-1
90 50 4.999999783666503E-1
90 55 9.999999796494972E-1
90 64 9.999999903437832E-1
90 69 4.999999696938025E-1
90 71 9.999999837811858E-1
90 79 9.999999869231758E-1
90 100 9.999999577738642E-1
90 108 9.999999850218022E-1
91 36 4.9999990304121944E-1
91 38 9.999998366604493E-1
91 39 9.999999800445072E-1
91 72 9.999998370047345E-1
91 74 4.99999919955521E-1
91 89 9.999998615585821E-1
91 95 4.9999993076161575E-1
91 102 4.999998779994159E-1
91 103 4.999999048872377E-1
91 117 4.99999932293823E-1
92 1 4.999999817874624E-1
92 5 9.999999993170825E-1
92 12 4.999999519932651E-1
92 22 9.999999978461228E-1
92 41 9.999999912335275E-1
92 66 9.999999989317203E-1
92 70 9.999999822025814E-1
92 88 9.999999925656443E-1
92 98 4.9999993399020953E-1
92 120 9.999999971524961E-1
92 123 9.999999925595963E-1
92 126 4.9999999347950674E-1
92 131 4.999999933106701E-1
93 2 4.99999978176775E-1
93 17 9.999999990689051E-1
93 28 9.999999991456052E-1
93 54 4.9999998074094465E-1
93 68 4.999999409869981E-1
93 76 9.999999702593206E-1
93 78 4.999999690969485E-1
93 84 4.999999804548595E-1
93 85 9.99999959310154E-1
93 109 4.9999993037481005E-1
93 113 4.999999842375171E-1
93 114 4.999999306995828E-1
93 124 4.999999761170635E-1
93 132 9.999999676304073E-1
94 1 4.9999995184539014E-1
94 9 4.999999168059596E-1
94 12 9.999999819847207E-1
94 45 4.999998646174372E-1
94 52 9.999999181884145E-1
94 81 4.9999995012849535E-1
94 88 4.9999992553084865E-1
94 89 4.9999991409791195E-1
94 98 9.999998976283968E-1
94 99 4.999999472418751E-1
94 116 4.9999992823033146E-1
94 123 4.9999992552876277E-1
95 14 4.999999514100628E-1
95 36 9.999999796863489E-1
95 39 9.999998908797549E-1
95 72 9.999999746764224E-1
95 74 9.999999992160342E-1
95 82 9.999999401059001E-1
95 91 4.9999993076161575E-1
95 102 9.999999789454675E-1
95 103 9.99999987353079E-1
95 117 9.999999130897915E-1
95 118 4.9999996289285553E-1
96 7 9.999999847148374E-1
96 13 9.99999993373076E-1
96 16 9.999999853682027E-1
96 18 9.999999863094752E-1
96 44 9.999999885792117E-1
96 60 4.9999988674822576E-1
96 61 9.999999920605731E-1
96 62 4.9999999230738046E-1
96 73 9.999999968756192E-1
96 75 4.9999998788522926E-1
96 106 9.99999996737775E-1
96 128 9.999999933620715E-1
96 129 4.999999876438362E-1
96 130 9.999999929151828E-1
97 1 4.999998384839812E-1
97 10 9.999998872620671E-1
97 21 4.9999985797279684E-1
97 30 9.99999897599093E-1
97 45 9.99999880714261E-1
97 65 4.9999989766775654E-1
97 98 4.999999154845718E-1
97 104 4.99999810057459E-1
97 107 4.9999993393270376E-1
97 112 4.999998314873891E-1
98 1 9.999999690032471E-1
98 12 9.999999467041137E-1
98 22 4.99999943250034E-1
98 41 4.9999995523630897E-1
98 45 4.9999991798400634E-1
98 65 9.999999720710051E-1
98 88 4.999999615488221E-1
98 92 4.9999993399020953E-1
98 94 9.999998976283968E-1
98 97 4.999999154845718E-1
98 107 9.999999605815608E-1
98 123 4.999999615579412E-1
99 6 9.999999751006154E-1
99 9 9.999999905577138E-1
99 12 4.9999996434716787E-1
99 52 9.999999425892813E-1
99 57 9.999999904247605E-1
99 66 4.9999997109166605E-1
99 81 9.99999999298799E-1
99 84 4.999999723692878E-1
99 85 4.9999997637622146E-1
99 89 4.999998542987735E-1
99 94 4.999999472418751E-1
99 110 4.9999994436789214E-1
99 116 9.999999926184387E-1
99 120 4.999999710410995E-1
100 25 4.999999407615571E-1
100 31 9.999999504046883E-1
100 32 4.9999979179318205E-1
100 33 4.9999993548489285E-1
100 46 9.999999887575014E-1
100 47 9.999999650464747E-1
100 51 9.999999394267419E-1
100 55 4.9999997154076326E-1
100 64 9.999999862890379E-1
100 69 4.9999993894355144E-1
100 71 4.999999583037816E-1
100 79 4.9999996772147737E-1
100 90 9.999999577738642E-1
100 108 9.999999859493752E-1
100 119 4.999999136923762E-1
101 19 9.999998409094081E-1
101 25 4.999998295680484E-1
101 46 4.999996726489063E-1
101 49 9.999998621029029E-1
101 51 4.999997769777443E-1
101 53 9.9999979136593E-1
101 58 9.999999402040615E-1
101 105 9.99999813128776E-1
101 119 4.999998730539389E-1
101 127 9.999999135339165E-1
102 3 4.999999315960817E-1
102 11 9.999999328702815E-1
102 14 4.999999377855871E-1
102 36 9.999999936614927E-1
102 72 9.999999821485894E-1
102 74 9.99999984673195E-1
102 82 4.9999994974047307E-1
102 91 4.999998779994159E-1
102 95 9.999999789454675E-1
102 103 9.999999602463242E-1
102 110 4.9999993978561535E-1
102 118 4.999999392886327E-1
103 14 9.999999598005551E-1
103 36 9.99999945254964E-1
103 39 4.999999354517936E-1
103 48 4.999999610293423E-1
103 72 9.999999302707533E-1
103 74 9.999999893347116E-1
103 82 9.999999822675163E-1
103 91 4.999999048872377E-1
103 95 9.99999987353079E-1
103 102 9.999999602463242E-1
103 117 9.999999412094931E-1
103 118 9.999999737174302E-1
104 10 4.999999451931877E-1
104 21 9.999999800913066E-1
104 24 9.999999927854745E-1
104 30 4.9999993764481954E-1
104 35 9.999999982461709E-1
104 42 9.999999943477978E-1
104 63 9.999999963906089E-1
104 67 9.999999701606834E-1
104 83 9.999999858193109E-1
104 97 4.99999810057459E-1
104 112 9.999999957652321E-1
104 115 4.9999998161881976E-1
104 122 9.99999998197823E-1
104 125 9.999999770490899E-1
105 19 9.99999893955133E-1
105 25 9.999999746406963E-1
105 32 4.999998314847112E-1
105 46 4.999999289466087E-1
105 49 9.999999194778766E-1
105 51 9.999999444355181E-1
105 53 9.999999518210632E-1
105 58 9.999999220236604E-1
105 101 9.99999813128776E-1
105 119 9.999999939504342E-1
105 127 9.999999193026765E-1
106 13 9.999999873494533E-1
106 16 4.9999999181138305E-1
106 18 9.999999945412784E-1
106 44 9.999999966611615E-1
106 59 9.999999851105259E-1
106 61 9.999999975601966E-1
106 73 9.999999964450762E-1
106 96 9.99999996737775E-1
106 128 9.99999989726008E-1
106 129 9.99999989678557E-1
106 130 9.999999972228211E-1
107 1 4.9999996720316076E-1
107 10 9.999999267567332E-1
107 30 9.999999210578648E-1
107 41 4.9999995983851836E-1
107 45 4.999998678989615E-1
107 65 9.999999894843026E-1
107 88 4.999999545208458E-1
107 97 4.9999993393270376E-1
107 98 9.999999605815608E-1
107 112 4.99999966297961E-1
107 115 4.999999651746381E-1
107 123 4.9999995453422563E-1
108 8 4.999999269399166E-1
108 27 9.999999676928197E-1
108 31 9.999999568852151E-1
108 33 4.99999900117771E-1
108 46 4.999999758526676E-1
108 47 9.999999940270801E-1
108 50 4.999999841100996E-1
108 51 4.999999374923783E-1
108 55 9.999999854165915E-1
108 64 9.99999998905503E-1
108 69 4.9999994208508003E-1
108 71 9.99999970132777E-1
108 79 9.999999813139115E-1
108 90 9.999999850218022E-1
108 100 9.999999859493752E-1
109 3 9.999999870926581E-1
109 11 9.999999439587205E-1
109 28 4.9999992171003316E-1
109 68 9.99999995332377E-1
109 76 9.999999572821453E-1
109 78 9.999999838825713E-1
109 93 4.9999993037481005E-1
109 110 4.999999276713106E-1
109 114 9.999999963638722E-1
109 132 9.999999591199316E-1
110 3 4.999999220016639E-1
110 6 9.999999690154733E-1
110 9 4.9999994216016913E-1
110 36 9.999999115663638E-1
110 52 9.999998825796131E-1
110 57 4.999999568536593E-1
110 72 9.999999228790869E-1
110 81 4.999999481640588E-1
110 85 4.999999752542537E-1
110 99 4.9999994436789214E-1
110 102 4.9999993978561535E-1
110 109 4.999999276713106E-1
110 116 9.999999382916251E-1
111 14 4.9999996534541974E-1
111 20 9.999999611291733E-1
111 38 9.999999453791877E-1
111 39 4.999999232746899E-1
111 40 9.999999226549564E-1
111 43 9.999999958378497E-1
111 48 9.999999686152863E-1
111 71 4.9999996532545643E-1
111 82 9.999999491296239E-1
111 117 9.999999731389188E-1
111 118 9.999999606877525E-1
112 10 4.9999994804796793E-1
112 21 4.99999985966884E-1
112 24 9.999999778636139E-1
112 30 4.999999408745271E-1
112 35 9.999999923842866E-1
112 42 9.99999980436144E-1
112 63 9.999999871215561E-1
112 65 4.999999670475019E-1
112 67 9.999999813939651E-1
112 83 9.999999909716919E-1
112 97 4.999998314873891E-1
112 104 9.999999957652321E-1
112 107 4.99999966297961E-1
112 115 9.999999807754091E-1
112 122 9.999999943500282E-1
112 125 9.999999850925093E-1
113 2 9.999999990009224E-1
113 6 4.9999996165898053E-1
113 9 4.99999987032672E-1
113 17 4.999999872767305E-1
113 28 9.999999779555795E-1
113 29 9.99999994311574E-1
113 37 4.999999891078691E-1
113 54 9.999999965950189E-1
113 56 4.999999917762659E-1
113 57 4.999999850282636E-1
113 80 9.999999909525568E-1
113 84 9.999999994229511E-1
113 85 4.99999985623978E-1
113 93 4.999999842375171E-1
113 124 9.99999992571941E-1
113 126 4.9999999273800677E-1
114 3 9.999999751407871E-1
114 11 9.999999180099074E-1
114 17 4.999999198036228E-1
114 28 4.9999992101149404E-1
114 68 9.999999991605121E-1
114 76 9.999999599960855E-1
114 78 9.999999840917685E-1
114 93 4.999999306995828E-1
114 109 9.999999963638722E-1
114 132 9.999999626815155E-1
115 22 4.999999862756342E-1
115 35 4.999999823950694E-1
115 41 9.999999807108173E-1
115 65 4.999999786285384E-1
115 67 9.999999966504927E-1
115 70 4.9999998297622567E-1
115 83 9.999999909429973E-1
115 88 4.9999998060801315E-1
115 104 4.9999998161881976E-1
115 107 4.999999651746381E-1
115 112 9.999999807754091E-1
115 122 9.999999703650824E-1
115 123 4.9999998061274536E-1
115 125 9.999999940608426E-1
116 2 4.999999648055208E-1
116 6 9.999999945018003E-1
116 9 9.999999825501732E-1
116 52 9.999999528015732E-1
116 57 9.999999902437506E-1
116 81 9.999999945007512E-1
116 84 4.99999968579249E-1
116 85 9.999999704365101E-1
116 89 4.999998639898487E-1
116 94 4.9999992823033146E-1
116 99 9.999999926184387E-1
116 110 9.999999382916251E-1
117 14 4.999999555319834E-1
117 38 9.999999628337073E-1
117 39 9.999999450151822E-1
117 43 9.999999478417183E-1
117 48 4.999999626000323E-1
117 74 4.9999995253297685E-1
117 82 9.999999520591936E-1
117 91 4.99999932293823E-1
117 95 9.999999130897915E-1
117 103 9.999999412094931E-1
117 111 9.999999731389188E-1
117 118 9.999999555227331E-1
118 14 9.999999923621493E-1
118 20 4.999999760182455E-1
118 34 4.999999685738726E-1
118 36 4.999999223743854E-1
118 38 4.9999992635206186E-1
118 39 4.999999129954459E-1
118 43 9.999999471764374E-1
118 48 9.999999860907628E-1
118 74 9.999999295684722E-1
118 82 9.99999999008984E-1
118 95 4.9999996289285553E-1
118 102 4.999999392886327E-1
118 103 9.999999737174302E-1
118 111 9.999999606877525E-1
118 117 9.999999555227331E-1
119 19 9.999998848716797E-1
119 25 9.999999933008972E-1
119 32 4.999998604226678E-1
119 46 9.999999041284897E-1
119 49 9.999998764893552E-1
119 51 9.999999709360743E-1
119 53 9.999999557233508E-1
119 58 9.999998728515364E-1
119 100 4.999999136923762E-1
119 101 4.999998730539389E-1
119 105 9.999999939504342E-1
119 127 9.999998711187753E-1
120 5 9.999999970478628E-1
120 22 9.999999905103018E-1
120 29 4.999999917170615E-1
120 37 9.999999842812957E-1
120 41 4.999999893439404E-1
120 66 9.999999994183822E-1
120 70 9.999999836964221E-1
120 87 9.999999868675974E-1
120 88 4.9999999065090306E-1
120 92 9.999999971524961E-1
120 99 4.999999710410995E-1
120 123 4.9999999064557993E-1
120 126 9.999999960893817E-1
120 131 9.999999927620304E-1
121 14 4.999999539154584E-1
121 15 9.999999945973462E-1
121 23 9.999999961524695E-1
121 26 9.999999888031457E-1
121 34 9.999999804484243E-1
121 44 4.9999996323893037E-1
121 59 4.9999997505023486E-1
121 61 4.9999995847415374E-1
121 129 4.9999997313299227E-1
121 130 4.9999995657606233E-1
122 10 4.999999308772594E-1
122 21 4.999999832176683E-1
122 24 9.99999992334853E-1
122 30 4.9999992244363367E-1
122 35 9.999999997548628E-1
122 42 9.999999911602442E-1
122 63 9.999999982518385E-1
122 67 9.999999796824847E-1
122 83 9.999999924714053E-1
122 104 9.99999998197823E-1
122 112 9.999999943500282E-1
122 115 9.999999703650824E-1
122 125 9.999999858475086E-1
123 1 9.999999884522679E-1
123 5 9.999999892396833E-1
123 12 4.9999996799534935E-1
123 22 9.99999995674328E-1
123 41 9.999999965609182E-1
123 45 4.999997685850422E-1
123 65 4.999999800186457E-1
123 66 9.999999872308178E-1
123 88 9.99999999999998E-1
123 92 9.999999925595963E-1
123 94 4.9999992552876277E-1
123 98 4.999999615579412E-1
123 107 4.9999995453422563E-1
123 115 4.9999998061274536E-1
123 120 4.9999999064557993E-1
123 131 4.999999801821699E-1
124 2 9.999999938287403E-1
124 17 4.9999998156669845E-1
124 28 4.9999998135571105E-1
124 29 9.999999987756074E-1
124 37 9.999999949825932E-1
124 54 9.999999991552695E-1
124 56 9.99999998230117E-1
124 80 9.999999998008425E-1
124 84 9.999999906977093E-1
124 87 9.999999910270911E-1
124 93 4.999999761170635E-1
124 113 9.99999992571941E-1
124 126 9.999999903322466E-1
124 131 4.9999999477982193E-1
125 24 9.999999594916078E-1
125 35 9.999999824121355E-1
125 42 4.9999997736407903E-1
125 63 9.999999770397965E-1
125 67 9.999999993527899E-1
125 70 4.9999998202780616E-1
125 83 9.999999989409939E-1
125 104 9.999999770490899E-1
125 112 9.999999850925093E-1
125 115 9.999999940608426E-1
125 122 9.999999858475086E-1
126 2 9.999999919346756E-1
126 5 4.9999999428541786E-1
126 9 4.999999865278673E-1
126 22 4.999999880965981E-1
126 29 9.999999955444112E-1
126 37 9.999999925674619E-1
126 54 9.999999889944207E-1
126 56 4.9999999355353436E-1
126 57 4.9999997956808695E-1
126 66 9.9999999249798E-1
126 70 4.999999918261631E-1
126 80 9.999999921142215E-1
126 84 4.999999941302433E-1
126 87 9.999999922500755E-1
126 92 4.9999999347950674E-1
126 113 4.9999999273800677E-1
126 120 9.999999960893817E-1
126 124 9.999999903322466E-1
126 131 9.999999958291805E-1
127 8 4.9999984696735567E-1
127 19 9.999997681533971E-1
127 25 9.999998098251112E-1
127 49 9.999999940233141E-1
127 51 4.999998844862473E-1
127 53 9.999998005083349E-1
127 58 9.99999997253687E-1
127 101 9.999999135339165E-1
127 105 9.999999193026765E-1
127 119 9.999998711187753E-1
128 4 4.999999719750514E-1
128 7 9.99999983759776E-1
128 13 9.999999995496509E-1
128 16 9.999999982188267E-1
128 18 9.999999887357761E-1
128 20 4.999999802008554E-1
128 44 4.999999874317052E-1
128 61 4.9999998876886664E-1
128 62 9.999999928621716E-1
128 73 9.999999819185806E-1
128 75 4.9999998853184235E-1
128 77 9.999999923632633E-1
128 86 9.999999860472144E-1
128 96 9.999999933620715E-1
128 106 9.99999989726008E-1
128 130 4.999999886968413E-1
129 15 9.999999712859732E-1
129 18 9.999999892546003E-1
129 23 4.9999997525611933E-1
129 26 9.999999830224201E-1
129 34 4.9999998302312715E-1
129 44 9.999999968360517E-1
129 48 4.999999698768386E-1
129 59 9.999999992701232E-1
129 61 9.999999936685106E-1
129 73 9.999999827123738E-1
129 96 4.999999876438362E-1
129 106 9.99999989678557E-1
129 121 4.9999997313299227E-1
129 130 9.999999916756748E-1
130 13 4.999999875079498E-1
130 15 4.9999997014679554E-1
130 18 9.999999863619856E-1
130 23 4.999999552324612E-1
130 26 4.999999788347955E-1
130 44 9.999999987540796E-1
130 59 9.999999861731491E-1
130 61 9.999999998481709E-1
130 73 9.999999982762828E-1
130 96 9.999999929151828E-1
130 106 9.999999972228211E-1
130 121 4.9999995657606233E-1
130 128 4.999999886968413E-1
130 129 9.999999916756748E-1
131 2 4.999999906735457E-1
131 5 9.999999909048138E-1
131 22 4.9999999024796826E-1
131 29 9.999999921008375E-1
131 37 9.999999980465424E-1
131 56 9.999999917443684E-1
131 66 4.9999999464600836E-1
131 70 9.999999958221485E-1
131 80 9.999999922233476E-1
131 87 9.999999991276182E-1
131 88 4.999999801879704E-1
131 92 4.999999933106701E-1
131 120 9.999999927620304E-1
131 123 4.999999801821699E-1
131 124 4.9999999477982193E-1
131 126 9.999999958291805E-1
132 3 9.999999030966008E-1
132 17 9.999999569371124E-1
132 28 9.999999574702405E-1
132 68 9.99999973017448E-1
132 76 9.999999999059157E-1
132 78 9.999999942861029E-1
132 85 4.9999995413669795E-1
132 93 9.999999676304073E-1
132 109 9.999999591199316E-1
132 114 9.999999626815155E-1
