%%MatrixMarket matrix coordinate real general
%
130 130 506
1 15 4.999999844425447E-1
1 41 4.9999998931174844E-1
1 64 4.999999875874825E-1
1 86 4.9999999429614067E-1
1 96 4.999999846963006E-1
1 104 4.9999996761512594E-1
1 121 4.999999942986602E-1
2 30 4.999999984555964E-1
2 82 9.99999999545391E-1
2 110 9.999999990134719E-1
3 14 9.999999834465323E-1
3 106 9.999999872547889E-1
3 111 4.999999877265234E-1
4 9 9.999999850467005E-1
4 11 4.999999784421175E-1
4 61 4.9999998828644365E-1
4 73 9.999999917845125E-1
5 17 9.999999994297357E-1
5 23 9.999999977397293E-1
5 90 9.999999993256606E-1
5 118 4.999999985424725E-1
6 15 4.999999860068199E-1
6 53 9.999999948039637E-1
6 86 4.99999988768719E-1
6 92 4.9999996134955044E-1
6 121 4.9999998876415436E-1
7 22 4.999999864722285E-1
7 35 4.9999999729274563E-1
7 42 9.999999990293501E-1
7 62 9.999999972925402E-1
8 58 4.999999915767321E-1
8 83 9.999999814905749E-1
8 107 4.9999998470233686E-1
8 114 9.99999994570864E-1
9 4 9.999999850467005E-1
9 11 4.999999456492664E-1
9 61 9.999999956612373E-1
9 73 9.999999989677424E-1
10 19 4.99999994781748E-1
10 43 9.99999999402701E-1
10 60 4.999999982443128E-1
10 127 9.999999989392129E-1
10 128 4.999999982959587E-1
11 4 4.999999784421175E-1
11 9 4.999999456492664E-1
11 73 4.9999995567198874E-1
12 53 9.999999895171459E-1
12 58 9.9999999787714E-1
12 83 4.999999869377996E-1
12 97 9.999999906763196E-1
13 22 4.9999997762509685E-1
13 31 9.999999995188538E-1
13 95 4.999999443390912E-1
13 104 4.999999638383756E-1
14 3 9.999999834465323E-1
14 100 4.999999668567532E-1
14 106 4.99999972331331E-1
15 1 4.999999844425447E-1
15 6 4.999999860068199E-1
15 92 9.999999822110129E-1
16 47 9.999999863445167E-1
16 80 9.999999922366715E-1
16 116 9.999999924580893E-1
17 5 9.999999994297357E-1
17 23 9.999999980073888E-1
17 90 9.999999978158511E-1
18 29 9.999999992468153E-1
18 91 9.999999990806008E-1
18 110 4.999999874365491E-1
19 10 4.99999994781748E-1
19 21 4.999999885514262E-1
19 43 4.999999951409991E-1
19 103 4.9999999730492306E-1
20 33 4.9999990495375835E-1
20 54 9.999999800386743E-1
20 94 4.999999707676274E-1
20 117 4.9999994315891044E-1
21 19 4.999999885514262E-1
21 28 4.9999998104004006E-1
21 47 9.999999896304121E-1
21 108 4.999999808087173E-1
22 7 4.999999864722285E-1
22 13 4.9999997762509685E-1
22 31 4.9999997290043674E-1
22 42 4.999999911087571E-1
22 102 4.9999999017069113E-1
23 5 9.999999977397293E-1
23 17 9.999999980073888E-1
23 41 4.99999998819229E-1
23 86 4.999999978653202E-1
23 90 9.99999997873178E-1
23 121 4.9999999786433164E-1
24 27 9.999999913345429E-1
24 34 9.999999928850173E-1
24 119 9.999999962007988E-1
25 65 9.999999993337041E-1
25 81 9.999999958222955E-1
25 113 4.999999967576925E-1
25 123 9.999999988992225E-1
26 33 4.999998809706986E-1
26 51 9.999999881516645E-1
26 94 9.999999722842929E-1
26 117 9.999999933850454E-1
27 24 9.999999913345429E-1
27 34 9.999999918672615E-1
27 119 9.999999889437908E-1
28 21 4.9999998104004006E-1
28 50 4.999999977030211E-1
28 56 9.999999961058497E-1
28 70 9.999999975651112E-1
28 77 9.999999972092778E-1
29 18 9.999999992468153E-1
29 91 9.999999991563373E-1
29 110 4.999999891162411E-1
30 2 4.999999984555964E-1
30 55 9.999999985022684E-1
30 78 9.999999990040821E-1
30 122 9.999999987909871E-1
30 124 4.999999978001892E-1
31 13 9.999999995188538E-1
31 22 4.9999997290043674E-1
31 95 4.9999994944268183E-1
31 104 4.9999996102473343E-1
32 68 9.999999823782508E-1
32 88 4.999999916441979E-1
32 112 9.999999951117414E-1
33 20 4.9999990495375835E-1
33 26 4.999998809706986E-1
33 54 4.9999992079381067E-1
34 24 9.999999928850173E-1
34 27 9.999999918672615E-1
34 119 9.999999806940141E-1
35 7 4.9999999729274563E-1
35 62 9.999999992877288E-1
35 102 9.99999998268201E-1
35 109 4.9999999623997426E-1
35 120 9.99999999757942E-1
36 66 4.999999872890206E-1
36 71 9.999999970985429E-1
36 93 9.999999799415112E-1
36 100 9.999999937411115E-1
37 57 9.999999977050347E-1
37 69 4.999999968058946E-1
37 85 9.99999999397277E-1
37 129 9.9999999807108E-1
38 39 4.999999643578414E-1
38 40 9.999999613474116E-1
38 108 4.999999730326433E-1
38 115 9.999999633005577E-1
39 38 4.999999643578414E-1
39 89 9.999999802951706E-1
39 115 4.999999728529267E-1
40 38 9.999999613474116E-1
40 48 4.99999983053756E-1
40 68 9.999999830741358E-1
41 1 4.9999998931174844E-1
41 23 4.99999998819229E-1
41 86 9.999999966018781E-1
41 121 9.999999966041169E-1
42 7 9.999999990293501E-1
42 22 4.999999911087571E-1
42 62 4.99999997761688E-1
42 102 4.999999972093979E-1
43 10 9.99999999402701E-1
43 19 4.999999951409991E-1
43 60 4.999999966523334E-1
43 72 4.99999997202624E-1
43 103 4.999999983515505E-1
43 127 9.999999968757944E-1
43 128 9.999999987697298E-1
44 95 9.999998822126241E-1
44 96 4.999999190142195E-1
44 104 4.9999986955829906E-1
45 51 9.999999802927618E-1
45 98 9.999999888987199E-1
45 105 4.9999997615598524E-1
46 48 4.9999998850935856E-1
46 63 9.999999951464857E-1
46 77 4.999999973173697E-1
46 88 9.999999958781083E-1
46 105 4.9999999705105336E-1
47 16 9.999999863445167E-1
47 21 9.999999896304121E-1
47 108 4.999999845047568E-1
47 116 9.999999862654785E-1
48 40 4.99999983053756E-1
48 46 4.9999998850935856E-1
48 70 4.999999907061326E-1
48 88 4.9999999448151655E-1
49 59 9.999999838049065E-1
49 99 4.999999319175228E-1
49 117 4.999999390203939E-1
49 125 9.99999994098388E-1
50 28 4.999999977030211E-1
50 56 9.999999955480425E-1
50 84 9.999999961443744E-1
51 26 9.999999881516645E-1
51 45 9.999999802927618E-1
51 117 9.999999713011499E-1
52 79 4.9999997749180025E-1
52 87 4.9999995409042325E-1
52 92 4.9999995960803E-1
52 97 4.9999997165521226E-1
52 114 4.9999997669721924E-1
53 6 9.999999948039637E-1
53 12 9.999999895171459E-1
53 97 4.9999999387893246E-1
54 20 9.999999800386743E-1
54 33 4.9999992079381067E-1
54 94 9.999999829058194E-1
54 117 4.9999997813975766E-1
55 30 9.999999985022684E-1
55 78 4.999999991771069E-1
55 82 4.9999999744859375E-1
55 110 4.9999999831889463E-1
55 122 9.999999991658802E-1
56 28 9.999999961058497E-1
56 50 9.999999955480425E-1
56 70 4.999999968165948E-1
56 77 9.999999978187093E-1
57 37 9.999999977050347E-1
57 78 9.999999987167177E-1
57 122 4.999999991261744E-1
58 8 4.999999915767321E-1
58 12 9.9999999787714E-1
58 79 4.9999999364515163E-1
58 83 4.999999920521969E-1
58 97 4.9999999527251815E-1
58 114 4.999999951831501E-1
59 49 9.999999838049065E-1
59 99 9.999999409551658E-1
59 125 9.999999972881838E-1
60 10 4.999999982443128E-1
60 43 4.999999966523334E-1
60 127 9.999999992792912E-1
61 4 4.9999998828644365E-1
61 9 9.999999956612373E-1
61 73 9.999999941637071E-1
61 75 9.999999930002665E-1
61 84 4.9999999583878496E-1
61 126 4.9999999647591536E-1
62 7 9.999999972925402E-1
62 35 9.999999992877288E-1
62 42 4.99999997761688E-1
62 102 4.999999982179734E-1
62 120 9.999999982737974E-1
63 46 9.999999951464857E-1
63 88 9.999999904650761E-1
63 98 4.999999932306315E-1
63 105 9.999999989192511E-1
63 112 4.9999999463499234E-1
64 1 4.999999875874825E-1
64 96 9.999999724218247E-1
64 104 9.999999896163916E-1
65 25 9.999999993337041E-1
65 81 9.999999969197279E-1
65 113 4.999999983462831E-1
65 123 9.999999993609197E-1
66 36 4.999999872890206E-1
66 71 9.999999860208126E-1
66 107 9.999999685385117E-1
67 74 4.9999998553224906E-1
67 76 9.999999903941721E-1
67 106 9.999999953910077E-1
67 111 9.99999999171057E-1
67 130 4.999999866781896E-1
68 32 9.999999823782508E-1
68 40 9.999999830741358E-1
68 112 4.999999795318963E-1
69 37 4.999999968058946E-1
69 85 9.999999968152622E-1
69 129 4.999999979373135E-1
70 28 9.999999975651112E-1
70 48 4.999999907061326E-1
70 56 4.999999968165948E-1
70 77 9.999999985601716E-1
71 36 9.999999970985429E-1
71 66 9.999999860208126E-1
71 100 9.999999823728233E-1
72 43 4.99999997202624E-1
72 103 9.9999999648973E-1
72 128 9.999999982979347E-1
73 4 9.999999917845125E-1
73 9 9.999999989677424E-1
73 11 4.9999995567198874E-1
73 61 9.999999941637071E-1
74 67 4.9999998553224906E-1
74 76 9.999999937228456E-1
74 91 4.999999853164485E-1
74 130 9.999999999070975E-1
75 61 9.999999930002665E-1
75 84 9.999999988684135E-1
75 126 9.999999924591892E-1
76 67 9.999999903941721E-1
76 74 9.999999937228456E-1
76 111 4.999999921457969E-1
76 130 9.999999943578758E-1
77 28 9.999999972092778E-1
77 46 4.999999973173697E-1
77 56 9.999999978187093E-1
77 70 9.999999985601716E-1
78 30 9.999999990040821E-1
78 55 4.999999991771069E-1
78 57 9.999999987167177E-1
78 122 9.999999998033442E-1
79 52 4.9999997749180025E-1
79 58 4.9999999364515163E-1
79 97 9.999999993076069E-1
79 114 9.99999994569828E-1
80 16 9.999999922366715E-1
80 101 9.999999824902563E-1
80 116 9.999999990214322E-1
81 25 9.999999958222955E-1
81 65 9.999999969197279E-1
81 123 9.999999989542963E-1
82 2 9.99999999545391E-1
82 55 4.9999999744859375E-1
82 110 9.999999994301996E-1
83 8 9.999999814905749E-1
83 12 4.999999869377996E-1
83 58 4.999999920521969E-1
83 107 4.9999997556508813E-1
84 50 9.999999961443744E-1
84 61 4.9999999583878496E-1
84 75 9.999999988684135E-1
85 37 9.99999999397277E-1
85 69 9.999999968152622E-1
85 129 9.999999991385763E-1
86 1 4.9999999429614067E-1
86 6 4.99999988768719E-1
86 23 4.999999978653202E-1
86 41 9.999999966018781E-1
86 121 9.99999999999998E-1
87 52 4.9999995409042325E-1
87 89 9.999998632975621E-1
87 92 4.999999151769388E-1
88 32 4.999999916441979E-1
88 46 9.999999958781083E-1
88 48 4.9999999448151655E-1
88 63 9.999999904650761E-1
88 112 9.999999932025735E-1
89 39 9.999999802951706E-1
89 87 9.999998632975621E-1
89 115 4.9999993314428876E-1
90 5 9.999999993256606E-1
90 17 9.999999978158511E-1
90 23 9.99999997873178E-1
90 118 4.9999999859413197E-1
91 18 9.999999990806008E-1
91 29 9.999999991563373E-1
91 74 4.999999853164485E-1
92 6 4.9999996134955044E-1
92 15 9.999999822110129E-1
92 52 4.9999995960803E-1
92 87 4.999999151769388E-1
93 36 9.999999799415112E-1
93 100 9.999999792099362E-1
93 101 9.999999875119385E-1
94 20 4.999999707676274E-1
94 26 9.999999722842929E-1
94 54 9.999999829058194E-1
94 117 9.999999897385733E-1
95 13 4.999999443390912E-1
95 31 4.9999994944268183E-1
95 44 9.999998822126241E-1
96 1 4.999999846963006E-1
96 44 4.999999190142195E-1
96 64 9.999999724218247E-1
96 104 9.999999610767007E-1
97 12 9.999999906763196E-1
97 52 4.9999997165521226E-1
97 53 4.9999999387893246E-1
97 58 4.9999999527251815E-1
97 79 9.999999993076069E-1
97 114 9.999999927111595E-1
98 45 9.999999888987199E-1
98 63 4.999999932306315E-1
98 105 9.999999861258669E-1
99 49 4.999999319175228E-1
99 59 9.999999409551658E-1
99 125 9.999999146200278E-1
100 14 4.999999668567532E-1
100 36 9.999999937411115E-1
100 71 9.999999823728233E-1
100 93 9.999999792099362E-1
101 80 9.999999824902563E-1
101 93 9.999999875119385E-1
101 116 4.9999998702378445E-1
102 22 4.9999999017069113E-1
102 35 9.99999998268201E-1
102 42 4.999999972093979E-1
102 62 4.999999982179734E-1
102 109 4.999999979092128E-1
102 120 9.999999982204604E-1
103 19 4.9999999730492306E-1
103 43 4.999999983515505E-1
103 72 9.9999999648973E-1
103 126 4.9999999492753044E-1
103 128 9.999999972577055E-1
104 1 4.9999996761512594E-1
104 13 4.999999638383756E-1
104 31 4.9999996102473343E-1
104 44 4.9999986955829906E-1
104 64 9.999999896163916E-1
104 96 9.999999610767007E-1
105 45 4.9999997615598524E-1
105 46 4.9999999705105336E-1
105 63 9.999999989192511E-1
105 98 9.999999861258669E-1
106 3 9.999999872547889E-1
106 14 4.99999972331331E-1
106 67 9.999999953910077E-1
106 111 9.99999996409546E-1
107 8 4.9999998470233686E-1
107 66 9.999999685385117E-1
107 83 4.9999997556508813E-1
108 21 4.999999808087173E-1
108 38 4.999999730326433E-1
108 47 4.999999845047568E-1
108 115 9.999999734763242E-1
109 35 4.9999999623997426E-1
109 102 4.999999979092128E-1
109 120 4.999999972104991E-1
110 2 9.999999990134719E-1
110 18 4.999999874365491E-1
110 29 4.999999891162411E-1
110 55 4.9999999831889463E-1
110 82 9.999999994301996E-1
111 3 4.999999877265234E-1
111 67 9.99999999171057E-1
111 76 4.999999921457969E-1
111 106 9.99999996409546E-1
112 32 9.999999951117414E-1
112 63 4.9999999463499234E-1
112 68 4.999999795318963E-1
112 88 9.999999932025735E-1
113 25 4.999999967576925E-1
113 65 4.999999983462831E-1
113 123 4.999999970677226E-1
114 8 9.99999994570864E-1
114 52 4.9999997669721924E-1
114 58 4.999999951831501E-1
114 79 9.99999994569828E-1
114 97 9.999999927111595E-1
115 38 9.999999633005577E-1
115 39 4.999999728529267E-1
115 89 4.9999993314428876E-1
115 108 9.999999734763242E-1
115 116 4.9999997804070884E-1
116 16 9.999999924580893E-1
116 47 9.999999862654785E-1
116 80 9.999999990214322E-1
116 101 4.9999998702378445E-1
116 115 4.9999997804070884E-1
117 20 4.9999994315891044E-1
117 26 9.999999933850454E-1
117 49 4.999999390203939E-1
117 51 9.999999713011499E-1
117 54 4.9999997813975766E-1
117 94 9.999999897385733E-1
118 5 4.999999985424725E-1
118 90 4.9999999859413197E-1
118 124 9.999999961385034E-1
119 24 9.999999962007988E-1
119 27 9.999999889437908E-1
119 34 9.999999806940141E-1
120 35 9.99999999757942E-1
120 62 9.999999982737974E-1
120 102 9.999999982204604E-1
120 109 4.999999972104991E-1
121 1 4.999999942986602E-1
121 6 4.9999998876415436E-1
121 23 4.9999999786433164E-1
121 41 9.999999966041169E-1
121 86 9.99999999999998E-1
122 30 9.999999987909871E-1
122 55 9.999999991658802E-1
122 57 4.999999991261744E-1
122 78 9.999999998033442E-1
123 25 9.999999988992225E-1
123 65 9.999999993609197E-1
123 81 9.999999989542963E-1
123 113 4.999999970677226E-1
124 30 4.999999978001892E-1
124 118 9.999999961385034E-1
124 129 9.999999958815707E-1
125 49 9.99999994098388E-1
125 59 9.999999972881838E-1
125 99 9.999999146200278E-1
126 61 4.9999999647591536E-1
126 75 9.999999924591892E-1
126 103 4.9999999492753044E-1
127 10 9.999999989392129E-1
127 43 9.999999968757944E-1
127 60 9.999999992792912E-1
128 10 4.999999982959587E-1
128 43 9.999999987697298E-1
128 72 9.999999982979347E-1
128 103 9.999999972577055E-1
129 37 9.9999999807108E-1
129 69 4.999999979373135E-1
129 85 9.999999991385763E-1
129 124 9.999999958815707E-1
130 67 4.999999866781896E-1
130 74 9.999999999070975E-1
130 76 9.999999943578758E-1
