%%MatrixMarket matrix coordinate real general
%
130 130 1970
1 5 4.999999780877872E-1
1 6 9.999999738933676E-1
1 15 9.999999688850894E-1
1 17 4.99999976854061E-1
1 23 4.9999998534286033E-1
1 41 9.999999786234969E-1
1 44 4.9999983683872445E-1
1 53 4.9999997548288894E-1
1 64 9.99999975174965E-1
1 86 9.999999885922813E-1
1 90 4.9999998201623236E-1
1 92 4.9999995245026624E-1
1 95 4.9999984051280394E-1
1 96 9.999999693926012E-1
1 104 4.9999996761512594E-1
1 121 9.999999885973204E-1
2 8 4.9999996103050554E-1
2 12 9.999999787566696E-1
2 18 4.9999998216004005E-1
2 29 4.999999840203728E-1
2 30 9.999999969111928E-1
2 37 9.999999837233949E-1
2 55 9.999999967584304E-1
2 57 9.99999986028594E-1
2 58 4.9999998627953673E-1
2 78 9.999999931711769E-1
2 79 4.999999648054147E-1
2 82 9.99999999545391E-1
2 83 4.99999982932757E-1
2 85 4.999999895333014E-1
2 91 4.999999784508992E-1
2 97 4.999999706907762E-1
2 110 9.999999990134719E-1
2 114 4.9999996524760304E-1
2 122 9.999999939062583E-1
2 124 9.999999920359851E-1
2 129 4.999999907906965E-1
3 14 9.999999834465323E-1
3 36 9.999998360714704E-1
3 66 4.9999989810495893E-1
3 67 9.999999690589423E-1
3 71 4.999999026260804E-1
3 74 9.999999022642222E-1
3 76 9.999999450853015E-1
3 100 9.999998649106238E-1
3 106 9.999999872547889E-1
3 107 4.999999229814107E-1
3 111 9.999999754530468E-1
3 130 9.999999043138165E-1
4 9 9.999999850467005E-1
4 11 9.99999956884235E-1
4 28 4.9999995235470035E-1
4 50 4.999999708450652E-1
4 56 4.9999995761645566E-1
4 61 9.999999765728873E-1
4 72 4.9999995955669985E-1
4 73 9.999999917845125E-1
4 75 4.9999997618682157E-1
4 84 9.999999584416961E-1
4 103 4.9999995485775256E-1
4 126 4.9999997232707627E-1
5 1 4.999999780877872E-1
5 6 4.9999998184156835E-1
5 17 9.999999994297357E-1
5 23 9.999999977397293E-1
5 37 4.9999999039674836E-1
5 41 9.999999908358268E-1
5 53 4.999999845779005E-1
5 69 9.99999988601699E-1
5 85 9.999999856927159E-1
5 86 9.999999893807354E-1
5 90 9.999999993256606E-1
5 118 9.99999997084945E-1
5 121 9.999999893748449E-1
5 124 9.999999887143989E-1
5 129 9.999999910190596E-1
6 1 9.999999738933676E-1
6 5 4.9999998184156835E-1
6 12 9.999999701180359E-1
6 15 9.999999720136398E-1
6 23 4.9999998228985404E-1
6 44 4.99999767049131E-1
6 52 4.999999432122595E-1
6 53 9.999999948039637E-1
6 58 4.999999780736733E-1
6 79 9.999999714590262E-1
6 86 9.99999977537438E-1
6 90 4.9999998639134496E-1
6 92 4.9999996134955044E-1
6 96 4.9999994977795714E-1
6 97 9.999999769848777E-1
6 114 4.9999997191002293E-1
6 118 4.999999847590405E-1
6 121 9.999999775283087E-1
7 13 4.9999992996858306E-1
7 22 9.99999972944457E-1
7 25 4.9999997352963166E-1
7 31 4.9999992164331447E-1
7 35 9.999999945854913E-1
7 42 9.999999990293501E-1
7 62 9.999999972925402E-1
7 65 4.9999997418928177E-1
7 81 9.999999704034261E-1
7 102 9.99999992767686E-1
7 109 9.999999778578216E-1
7 113 4.999999661885631E-1
7 120 9.999999920751073E-1
7 123 9.999999589670161E-1
8 2 4.9999996103050554E-1
8 12 9.999999696860247E-1
8 52 9.999999397163816E-1
8 53 4.999999679264137E-1
8 58 9.999999831534642E-1
8 66 4.999999529775061E-1
8 71 4.999999107565035E-1
8 79 9.999999782899999E-1
8 82 4.999999659557149E-1
8 83 9.999999814905749E-1
8 87 4.999998552519769E-1
8 97 9.999999754133797E-1
8 107 9.999999694046737E-1
8 110 4.9999996214058684E-1
8 114 9.99999994570864E-1
9 4 9.999999850467005E-1
9 11 4.999999456492664E-1
9 19 4.999999755534847E-1
9 43 9.999999477655929E-1
9 50 4.999999771704248E-1
9 61 9.999999956612373E-1
9 72 9.999999729747553E-1
9 73 9.999999989677424E-1
9 75 9.999999776522404E-1
9 84 9.999999759678219E-1
9 103 9.999999681592806E-1
9 126 9.999999839637714E-1
9 128 9.999999591340976E-1
10 19 9.99999989563496E-1
10 21 4.9999997052230444E-1
10 24 9.999999398356723E-1
10 27 9.999999767923001E-1
10 34 9.999999544415283E-1
10 43 9.99999999402701E-1
10 47 4.9999996406114633E-1
10 60 9.999999964886256E-1
10 72 9.999999902108874E-1
10 103 9.999999939843819E-1
10 119 4.9999996921237605E-1
10 126 9.999999693777165E-1
10 127 9.999999989392129E-1
10 128 9.999999965919174E-1
11 4 9.99999956884235E-1
11 9 4.999999456492664E-1
11 45 4.999999308985719E-1
11 49 4.999998857614953E-1
11 50 4.999999293288867E-1
11 51 9.999998585342946E-1
11 56 4.9999992161902507E-1
11 59 4.999998249995966E-1
11 61 4.999999389285698E-1
11 73 4.9999995567198874E-1
11 75 4.9999992286220735E-1
11 84 4.999999326385631E-1
11 98 4.9999992690799716E-1
11 99 4.999996559601791E-1
11 105 4.999999278576334E-1
11 117 4.999998869831888E-1
11 125 4.999998488896177E-1
12 2 9.999999787566696E-1
12 6 9.999999701180359E-1
12 8 9.999999696860247E-1
12 52 4.999999458541726E-1
12 53 9.999999895171459E-1
12 58 9.9999999787714E-1
12 79 9.999999856956531E-1
12 82 9.999999811968603E-1
12 83 9.999999738755992E-1
12 92 4.9999991785097037E-1
12 97 9.999999906763196E-1
12 107 4.9999994288670246E-1
12 110 9.999999743911124E-1
12 114 9.999999827693627E-1
12 124 4.9999998669709245E-1
13 7 4.9999992996858306E-1
13 22 9.999999552501937E-1
13 31 9.999999995188538E-1
13 35 4.999999313584802E-1
13 42 4.9999994102399964E-1
13 44 4.9999980002645983E-1
13 62 4.999999265585347E-1
13 64 4.999999344949333E-1
13 95 9.999998886781823E-1
13 102 4.9999994588162294E-1
13 104 9.999999276767512E-1
13 109 4.999999487005439E-1
13 120 4.9999993174551877E-1
14 3 9.999999834465323E-1
14 24 4.999999278844721E-1
14 36 9.9999990392847E-1
14 66 9.999998438870406E-1
14 67 9.999999090016658E-1
14 71 9.999998740547308E-1
14 76 9.999998812564992E-1
14 93 4.9999992104402846E-1
14 100 9.999999337135064E-1
14 106 9.99999944662662E-1
14 107 4.9999992403230703E-1
14 111 9.999999190397952E-1
15 1 9.999999688850894E-1
15 6 9.999999720136398E-1
15 23 4.9999995121153357E-1
15 41 4.999999531342985E-1
15 44 4.9999985774334516E-1
15 52 4.9999994488264327E-1
15 53 4.9999997242844796E-1
15 79 4.999999642504648E-1
15 86 4.9999996839805716E-1
15 87 4.9999986063014046E-1
15 90 4.999999525962837E-1
15 92 9.999999822110129E-1
15 95 4.999998009411455E-1
15 96 9.9999994737357E-1
15 97 4.999999647950076E-1
15 121 4.9999996839736377E-1
16 19 4.999999661704464E-1
16 21 9.999999554827723E-1
16 24 9.999999402864682E-1
16 27 9.999999449589869E-1
16 34 9.999999734807244E-1
16 36 4.999999161734567E-1
16 47 9.999999863445167E-1
16 60 4.999999747763965E-1
16 80 9.999999922366715E-1
16 93 4.999999520204071E-1
16 100 4.9999993856707015E-1
16 101 9.999999603055054E-1
16 108 9.999999315614405E-1
16 115 4.9999995609055176E-1
16 116 9.999999924580893E-1
16 119 4.9999995449433204E-1
16 127 4.9999996847599565E-1
17 1 4.99999976854061E-1
17 5 9.999999994297357E-1
17 23 9.999999980073888E-1
17 25 4.999999827484535E-1
17 37 9.999999810272343E-1
17 41 9.999999923409931E-1
17 64 4.999999625394491E-1
17 65 4.999999824895025E-1
17 69 9.999999914471219E-1
17 85 9.999999864961515E-1
17 86 9.999999882230182E-1
17 90 9.999999978158511E-1
17 113 4.999999854202476E-1
17 118 9.999999943556742E-1
17 121 9.999999882185593E-1
17 124 4.999999927585807E-1
17 129 9.999999908824241E-1
18 2 4.9999998216004005E-1
18 29 9.999999992468153E-1
18 30 4.9999997830096765E-1
18 55 4.999999855013471E-1
18 67 4.9999993180675567E-1
18 74 9.999999603120108E-1
18 76 4.99999961929517E-1
18 78 4.999999790247027E-1
18 82 4.9999998376846083E-1
18 83 9.99999956304775E-1
18 91 9.999999990806008E-1
18 106 4.9999991988300957E-1
18 110 9.999999748730982E-1
18 111 4.9999992081097955E-1
18 122 4.9999998179824146E-1
18 130 9.999999574780307E-1
19 9 4.999999755534847E-1
19 10 9.99999989563496E-1
19 16 4.999999661704464E-1
19 21 9.999999771028524E-1
19 24 4.999999515431894E-1
19 27 4.9999997465385737E-1
19 34 4.9999996746328224E-1
19 43 9.999999902819982E-1
19 47 9.999999579401192E-1
19 60 9.999999884582871E-1
19 61 9.999999642676571E-1
19 72 9.999999824138601E-1
19 73 4.9999996892319754E-1
19 75 9.99999969872425E-1
19 84 4.999999785321671E-1
19 103 9.999999946098461E-1
19 116 4.999999517224432E-1
19 119 4.999999457564769E-1
19 126 9.999999888772674E-1
19 127 9.999999893895746E-1
19 128 9.999999865332945E-1
20 26 9.999998568874378E-1
20 33 9.999998099075167E-1
20 45 4.999998162215605E-1
20 49 9.999997251935098E-1
20 51 4.9999988134317347E-1
20 54 9.999999800386743E-1
20 59 9.999998073908763E-1
20 94 9.999999415352548E-1
20 98 4.999997495511856E-1
20 99 9.999998429077649E-1
20 117 9.999998863178209E-1
20 125 9.999997710656511E-1
21 10 4.9999997052230444E-1
21 16 9.999999554827723E-1
21 19 9.999999771028524E-1
21 28 9.999999620800801E-1
21 47 9.999999896304121E-1
21 60 9.999999527292409E-1
21 70 9.999999588968911E-1
21 75 4.999999797554328E-1
21 80 4.9999996960895604E-1
21 84 4.99999974496344E-1
21 103 4.9999997513156197E-1
21 108 9.999999616174347E-1
21 115 4.999999439251552E-1
21 116 9.999999526389666E-1
21 126 4.9999998044955496E-1
21 127 4.999999737132578E-1
22 7 9.99999972944457E-1
22 13 9.999999552501937E-1
22 31 9.999999458008735E-1
22 35 9.999999684733366E-1
22 42 9.999999822175142E-1
22 62 9.999999665658922E-1
22 65 4.9999995483890125E-1
22 81 4.9999996812566516E-1
22 95 4.999998597568182E-1
22 102 9.999999803413823E-1
22 104 4.9999995227746424E-1
22 109 9.999999722863114E-1
22 120 9.999999668569465E-1
22 123 4.999999598975666E-1
23 1 4.9999998534286033E-1
23 5 9.999999977397293E-1
23 6 4.9999998228985404E-1
23 15 4.9999995121153357E-1
23 17 9.999999980073888E-1
23 41 9.99999997638458E-1
23 64 4.9999997252066575E-1
23 69 9.999999818455736E-1
23 85 4.9999998709060467E-1
23 86 9.999999957306404E-1
23 90 9.99999997873178E-1
23 96 4.9999994396287745E-1
23 113 9.999999728960552E-1
23 118 9.999999906295031E-1
23 121 9.999999957286633E-1
23 124 4.9999998824611824E-1
23 129 4.999999903704648E-1
24 10 9.999999398356723E-1
24 14 4.999999278844721E-1
24 16 9.999999402864682E-1
24 19 4.999999515431894E-1
24 27 9.999999913345429E-1
24 34 9.999999928850173E-1
24 43 4.9999996386819767E-1
24 60 9.999999575380336E-1
24 80 9.999998972179132E-1
24 103 4.999999483438392E-1
24 119 9.999999962007988E-1
24 127 9.999999511338606E-1
24 128 4.999999557947919E-1
25 7 4.9999997352963166E-1
25 17 4.999999827484535E-1
25 35 9.999999739160604E-1
25 41 4.9999998196950346E-1
25 42 4.999999709163666E-1
25 62 9.999999682632705E-1
25 65 9.999999993337041E-1
25 69 4.999999878563835E-1
25 81 9.999999958222955E-1
25 102 9.999999665557147E-1
25 109 9.999999762597989E-1
25 113 9.99999993515385E-1
25 120 9.999999778702351E-1
25 123 9.999999988992225E-1
26 20 9.999998568874378E-1
26 33 4.999998809706986E-1
26 45 9.999999438784546E-1
26 49 9.999998244171207E-1
26 51 9.999999881516645E-1
26 54 9.999999427775763E-1
26 59 9.999998117491289E-1
26 63 4.9999989506283843E-1
26 94 9.999999722842929E-1
26 98 4.9999994150565863E-1
26 99 4.999998317088652E-1
26 105 4.99999896871777E-1
26 117 9.999999933850454E-1
26 125 9.999998122139216E-1
27 10 9.999999767923001E-1
27 16 9.999999449589869E-1
27 19 4.9999997465385737E-1
27 24 9.999999913345429E-1
27 34 9.999999918672615E-1
27 43 9.999999691104041E-1
27 60 9.999999861199479E-1
27 72 4.999999699209154E-1
27 103 4.999999737921987E-1
27 116 4.999999485299578E-1
27 119 9.999999889437908E-1
27 127 9.999999832356776E-1
27 128 9.999999582013086E-1
28 4 4.9999995235470035E-1
28 21 9.999999620800801E-1
28 46 9.999999844144329E-1
28 48 9.999999655295998E-1
28 50 9.999999954060422E-1
28 56 9.999999961058497E-1
28 61 4.9999997899690196E-1
28 63 9.999999647687513E-1
28 70 9.999999975651112E-1
28 75 9.999999843030594E-1
28 77 9.999999972092778E-1
28 84 9.999999867154201E-1
28 88 9.999999727270429E-1
28 105 9.999999680986343E-1
28 108 4.9999995778756423E-1
28 112 4.999999704467765E-1
29 2 4.999999840203728E-1
29 18 9.999999992468153E-1
29 30 4.9999997896432086E-1
29 55 4.999999858000215E-1
29 67 4.9999993281506094E-1
29 74 9.999999611500899E-1
29 76 4.9999996328273416E-1
29 78 4.999999788219739E-1
29 82 4.999999859835533E-1
29 83 9.999999668714463E-1
29 91 9.999999991563373E-1
29 106 4.999999226934432E-1
29 110 9.999999782324822E-1
29 111 4.9999992200367854E-1
29 122 4.9999998158990433E-1
29 130 9.999999580044622E-1
30 2 9.999999969111928E-1
30 18 4.9999997830096765E-1
30 29 4.9999997896432086E-1
30 37 9.999999947429961E-1
30 55 9.999999985022684E-1
30 57 9.999999955530956E-1
30 69 4.999999892166893E-1
30 78 9.999999990040821E-1
30 82 9.999999941608466E-1
30 85 9.999999916329727E-1
30 91 4.9999997302745713E-1
30 110 9.999999943830271E-1
30 118 9.999999836422091E-1
30 122 9.999999987909871E-1
30 124 9.999999956003784E-1
30 129 9.999999922000598E-1
31 7 4.9999992164331447E-1
31 13 9.999999995188538E-1
31 22 9.999999458008735E-1
31 35 4.99999922992801E-1
31 42 4.9999993338178755E-1
31 44 4.9999980580527614E-1
31 62 4.999999179176652E-1
31 64 4.999999298716415E-1
31 95 9.999998988853637E-1
31 102 4.999999384280708E-1
31 104 9.999999220494669E-1
31 109 4.9999994161720956E-1
31 120 4.999999234178289E-1
32 33 4.9999978241223025E-1
32 38 4.9999992373049934E-1
32 40 9.999999598057278E-1
32 45 4.999999530021991E-1
32 46 9.999999657089206E-1
32 48 9.999999720665755E-1
32 51 4.9999990229572E-1
32 56 4.999999639666759E-1
32 63 9.999999699064107E-1
32 68 9.999999823782508E-1
32 70 4.999999680929419E-1
32 77 4.999999705006555E-1
32 88 9.999999832883958E-1
32 98 9.999999510276611E-1
32 105 9.999999574267854E-1
32 112 9.999999951117414E-1
33 20 9.999998099075167E-1
33 26 4.999998809706986E-1
33 32 4.9999978241223025E-1
33 45 4.999998307124105E-1
33 51 4.9999984712913964E-1
33 54 9.999998415876213E-1
33 63 4.999997340237794E-1
33 68 4.999997869532464E-1
33 94 9.999997464207967E-1
33 98 4.9999979440849357E-1
33 99 4.9999965612111885E-1
33 112 4.9999976747781416E-1
33 117 4.99999862175916E-1
34 10 9.999999544415283E-1
34 16 9.999999734807244E-1
34 19 4.9999996746328224E-1
34 24 9.999999928850173E-1
34 27 9.999999918672615E-1
34 43 9.999999434281126E-1
34 47 9.999999409759089E-1
34 60 9.999999741319895E-1
34 80 9.999999405453084E-1
34 100 4.99999923487122E-1
34 101 4.999999507479013E-1
34 116 9.999999379372403E-1
34 119 9.999999806940141E-1
34 127 9.999999664727515E-1
35 7 9.999999945854913E-1
35 13 4.999999313584802E-1
35 22 9.999999684733366E-1
35 25 9.999999739160604E-1
35 31 4.99999922992801E-1
35 42 9.999999936436343E-1
35 62 9.999999992877288E-1
35 65 9.99999975764403E-1
35 81 9.999999899643338E-1
35 102 9.99999998268201E-1
35 109 9.999999924799485E-1
35 113 9.999999652324142E-1
35 120 9.99999999757942E-1
35 123 9.999999826330589E-1
36 3 9.999998360714704E-1
36 14 9.9999990392847E-1
36 16 4.999999161734567E-1
36 39 4.9999990527325894E-1
36 66 9.999999745780412E-1
36 71 9.999999970985429E-1
36 80 4.99999934756854E-1
36 89 4.999999042591308E-1
36 93 9.999999799415112E-1
36 100 9.999999937411115E-1
36 101 9.999999459426233E-1
36 107 9.999999126771898E-1
36 115 4.9999990572170294E-1
36 116 4.999999233494504E-1
37 2 9.999999837233949E-1
37 5 4.9999999039674836E-1
37 17 9.999999810272343E-1
37 30 9.999999947429961E-1
37 55 9.999999905706535E-1
37 57 9.999999977050347E-1
37 69 9.999999936117892E-1
37 78 9.999999967630037E-1
37 82 4.9999998894462566E-1
37 85 9.99999999397277E-1
37 110 4.999999892446865E-1
37 118 9.999999844787403E-1
37 122 9.999999950456174E-1
37 124 9.99999992660823E-1
37 129 9.9999999807108E-1
38 32 4.9999992373049934E-1
38 39 9.999999287156828E-1
38 40 9.999999613474116E-1
38 47 4.999999188305061E-1
38 48 4.99999952605726E-1
38 68 9.999998963450885E-1
38 80 4.9999992119210684E-1
38 88 4.999999172030858E-1
38 89 9.999998387121778E-1
38 108 9.999999460652866E-1
38 115 9.999999633005577E-1
38 116 4.999999272771628E-1
39 36 4.9999990527325894E-1
39 38 9.999999287156828E-1
39 40 4.9999989257295896E-1
39 71 9.999998286904721E-1
39 80 4.999999160618489E-1
39 87 4.999998700189925E-1
39 89 9.999999802951706E-1
39 93 9.99999892250428E-1
39 100 4.999998903139428E-1
39 101 9.999998725251834E-1
39 108 4.999999242384461E-1
39 115 9.999999457058534E-1
39 116 4.9999991408832095E-1
40 32 9.999999598057278E-1
40 38 9.999999613474116E-1
40 39 4.9999989257295896E-1
40 46 4.999999500998156E-1
40 48 9.99999966107512E-1
40 63 4.999999415730063E-1
40 68 9.999999830741358E-1
40 70 4.9999994867170605E-1
40 77 4.9999994385586444E-1
40 88 4.9999996783987816E-1
40 108 9.999999236264971E-1
40 112 4.999999678541704E-1
40 115 9.99999882878823E-1
41 1 9.999999786234969E-1
41 5 9.999999908358268E-1
41 15 4.999999531342985E-1
41 17 9.999999923409931E-1
41 23 9.99999997638458E-1
41 25 4.9999998196950346E-1
41 64 4.999999825747739E-1
41 65 9.999999678452264E-1
41 69 4.999999860650009E-1
41 86 9.999999966018781E-1
41 90 9.999999913436443E-1
41 96 4.999999557985913E-1
41 104 4.9999996034299177E-1
41 113 9.999999809531112E-1
41 118 4.999999894777925E-1
41 121 9.999999966041169E-1
41 123 4.9999997916040245E-1
41 129 4.999999832756136E-1
42 7 9.999999990293501E-1
42 13 4.9999994102399964E-1
42 22 9.999999822175142E-1
42 25 4.999999709163666E-1
42 31 4.9999993338178755E-1
42 35 9.999999936436343E-1
42 62 9.99999995523376E-1
42 65 4.9999997237306876E-1
42 81 9.99999967741609E-1
42 102 9.999999944187958E-1
42 109 9.999999806818881E-1
42 113 4.999999657469505E-1
42 120 9.999999912712815E-1
42 123 4.9999997764841164E-1
43 9 9.999999477655929E-1
43 10 9.99999999402701E-1
43 19 9.999999902819982E-1
43 24 4.9999996386819767E-1
43 27 9.999999691104041E-1
43 34 9.999999434281126E-1
43 60 9.999999933046668E-1
43 61 4.9999997475730706E-1
43 72 9.99999994405248E-1
43 73 4.999999660557259E-1
43 103 9.99999996703101E-1
43 119 4.999999637006908E-1
43 126 9.999999751791543E-1
43 127 9.999999968757944E-1
43 128 9.999999987697298E-1
44 1 4.9999983683872445E-1
44 6 4.99999767049131E-1
44 13 4.9999980002645983E-1
44 15 4.9999985774334516E-1
44 31 4.9999980580527614E-1
44 64 4.9999985165358046E-1
44 86 4.999997714717164E-1
44 92 4.9999986631799437E-1
44 95 9.999998822126241E-1
44 96 4.999999190142195E-1
44 104 4.9999986955829906E-1
44 121 4.999997714918739E-1
45 11 4.999999308985719E-1
45 20 4.999998162215605E-1
45 26 9.999999438784546E-1
45 32 4.999999530021991E-1
45 33 4.999998307124105E-1
45 46 4.999999579105921E-1
45 49 4.9999983745713017E-1
45 51 9.999999802927618E-1
45 54 4.999998918955404E-1
45 56 4.999999443498309E-1
45 59 4.999998050018258E-1
45 63 4.9999997552978215E-1
45 77 4.999999372674516E-1
45 88 4.999999523093861E-1
45 94 4.999999189169522E-1
45 98 9.999999888987199E-1
45 99 4.999996767608033E-1
45 105 9.999999523119705E-1
45 112 4.9999996602301844E-1
45 117 9.999999053327437E-1
45 125 4.999998145344849E-1
46 28 9.999999844144329E-1
46 32 9.999999657089206E-1
46 40 4.999999500998156E-1
46 45 4.999999579105921E-1
46 48 9.999999770187171E-1
46 50 9.999999771833211E-1
46 51 4.9999990925123744E-1
46 56 9.999999928876916E-1
46 63 9.999999951464857E-1
46 68 4.999999528109907E-1
46 70 9.999999894134186E-1
46 77 9.999999946347394E-1
46 88 9.999999958781083E-1
46 98 9.999999654855304E-1
46 105 9.999999941021067E-1
46 112 9.999999845997125E-1
47 10 4.9999996406114633E-1
47 16 9.999999863445167E-1
47 19 9.999999579401192E-1
47 21 9.999999896304121E-1
47 34 9.999999409759089E-1
47 38 4.999999188305061E-1
47 60 4.9999997518533246E-1
47 80 9.99999978936904E-1
47 93 4.9999992481616606E-1
47 101 4.999999615188576E-1
47 103 4.9999996162175203E-1
47 108 9.999999690095136E-1
47 115 9.999999261396361E-1
47 116 9.999999862654785E-1
47 127 4.999999702552194E-1
48 28 9.999999655295998E-1
48 32 9.999999720665755E-1
48 38 4.99999952605726E-1
48 40 9.99999966107512E-1
48 46 9.999999770187171E-1
48 56 9.999999609369905E-1
48 63 9.999999591724759E-1
48 68 4.999999737190637E-1
48 70 9.999999814122652E-1
48 77 9.999999766551718E-1
48 88 9.999999889630331E-1
48 105 4.9999997515919153E-1
48 108 9.999999522357116E-1
48 112 9.999999736309496E-1
48 115 4.9999993529160597E-1
49 11 4.999998857614953E-1
49 20 9.999997251935098E-1
49 26 9.999998244171207E-1
49 45 4.9999983745713017E-1
49 51 4.9999990039677744E-1
49 54 9.99999778495753E-1
49 59 9.999999838049065E-1
49 94 9.999998763752429E-1
49 98 4.9999978325505157E-1
49 99 9.999998638350456E-1
49 117 9.999998780407878E-1
49 125 9.99999994098388E-1
50 4 4.999999708450652E-1
50 9 4.999999771704248E-1
50 11 4.999999293288867E-1
50 28 9.999999954060422E-1
50 46 9.999999771833211E-1
50 56 9.999999955480425E-1
50 61 9.999999768640433E-1
50 63 9.999999611945936E-1
50 70 9.999999870731554E-1
50 73 4.999999779745635E-1
50 75 9.999999924246952E-1
50 77 9.999999903527769E-1
50 84 9.999999961443744E-1
50 88 9.99999957276779E-1
50 98 4.999999580905721E-1
50 105 9.999999686193893E-1
50 126 9.999999698244881E-1
51 11 9.999998585342946E-1
51 20 4.9999988134317347E-1
51 26 9.999999881516645E-1
51 32 4.9999990229572E-1
51 33 4.9999984712913964E-1
51 45 9.999999802927618E-1
51 46 4.9999990925123744E-1
51 49 4.9999990039677744E-1
51 54 9.99999878991602E-1
51 59 4.9999988039307236E-1
51 63 4.9999993573038254E-1
51 94 9.999999282612485E-1
51 98 9.999999401876103E-1
51 99 4.999997797791543E-1
51 105 4.999999382775444E-1
51 112 4.9999991989927883E-1
51 117 9.999999713011499E-1
51 125 4.9999988593723E-1
52 6 4.999999432122595E-1
52 8 9.999999397163816E-1
52 12 4.999999458541726E-1
52 15 4.9999994488264327E-1
52 53 4.99999944115612E-1
52 58 4.9999995224953514E-1
52 66 4.999999394432758E-1
52 79 9.999999549836005E-1
52 87 9.999999081808465E-1
52 92 9.9999991921606E-1
52 97 9.999999433104245E-1
52 107 9.999998840545453E-1
52 114 9.999999533944385E-1
53 1 4.9999997548288894E-1
53 5 4.999999845779005E-1
53 6 9.999999948039637E-1
53 8 4.999999679264137E-1
53 12 9.999999895171459E-1
53 15 4.9999997242844796E-1
53 52 4.99999944115612E-1
53 58 9.999999797063237E-1
53 79 9.999999818457527E-1
53 86 9.999999687075315E-1
53 90 9.999999762763008E-1
53 92 4.999999443995832E-1
53 97 9.999999877578649E-1
53 114 9.999999639606302E-1
53 118 4.99999990098849E-1
53 121 9.999999686931255E-1
53 124 4.9999998583883803E-1
54 20 9.999999800386743E-1
54 26 9.999999427775763E-1
54 33 9.999998415876213E-1
54 45 4.999998918955404E-1
54 49 9.99999778495753E-1
54 51 9.99999878991602E-1
54 59 9.999998264684095E-1
54 94 9.999999829058194E-1
54 98 4.999998394910906E-1
54 99 9.999997939866084E-1
54 117 9.999999562795153E-1
54 125 9.999998030141747E-1
55 2 9.999999967584304E-1
55 18 4.999999855013471E-1
55 29 4.999999858000215E-1
55 30 9.999999985022684E-1
55 37 9.999999905706535E-1
55 57 9.999999950866463E-1
55 78 9.999999983542138E-1
55 82 9.999999948971875E-1
55 85 9.999999856368633E-1
55 91 4.999999809828601E-1
55 110 9.999999966377893E-1
55 118 4.9999998618734026E-1
55 122 9.999999991658802E-1
55 124 9.999999891326632E-1
55 129 4.999999924484642E-1
56 4 4.9999995761645566E-1
56 11 4.9999992161902507E-1
56 28 9.999999961058497E-1
56 32 4.999999639666759E-1
56 45 4.999999443498309E-1
56 46 9.999999928876916E-1
56 48 9.999999609369905E-1
56 50 9.999999955480425E-1
56 63 9.999999818936752E-1
56 70 9.999999936331896E-1
56 75 9.999999768849781E-1
56 77 9.999999978187093E-1
56 84 9.999999834064079E-1
56 88 9.999999799051225E-1
56 98 4.999999718982433E-1
56 105 9.999999855997755E-1
56 112 9.99999956567649E-1
57 2 9.99999986028594E-1
57 30 9.999999955530956E-1
57 37 9.999999977050347E-1
57 55 9.999999950866463E-1
57 69 9.999999848455625E-1
57 78 9.999999987167177E-1
57 82 9.999999812369663E-1
57 85 9.999999948680558E-1
57 110 9.999999837591305E-1
57 122 9.999999982523488E-1
57 124 9.999999872690184E-1
57 129 9.999999918480683E-1
58 2 4.9999998627953673E-1
58 6 4.999999780736733E-1
58 8 9.999999831534642E-1
58 12 9.9999999787714E-1
58 52 4.9999995224953514E-1
58 53 9.999999797063237E-1
58 79 9.999999872903033E-1
58 82 9.999999769335896E-1
58 83 9.999999841043938E-1
58 97 9.999999905450363E-1
58 107 4.9999995739562586E-1
58 110 4.9999998521632544E-1
58 114 9.999999903663002E-1
58 124 4.9999997982473476E-1
59 11 4.999998249995966E-1
59 20 9.999998073908763E-1
59 26 9.999998117491289E-1
59 45 4.999998050018258E-1
59 49 9.999999838049065E-1
59 51 4.9999988039307236E-1
59 54 9.999998264684095E-1
59 94 9.999998976719685E-1
59 98 4.9999973974519424E-1
59 99 9.999999409551658E-1
59 117 9.999998744486641E-1
59 125 9.999999972881838E-1
60 10 9.999999964886256E-1
60 16 4.999999747763965E-1
60 19 9.999999884582871E-1
60 21 9.999999527292409E-1
60 24 9.999999575380336E-1
60 27 9.999999861199479E-1
60 34 9.999999741319895E-1
60 43 9.999999933046668E-1
60 47 4.9999997518533246E-1
60 72 9.999999756103176E-1
60 80 4.999999519690655E-1
60 103 9.999999852975545E-1
60 116 4.999999555468127E-1
60 119 4.99999975363632E-1
60 126 4.999999791018835E-1
60 127 9.999999992792912E-1
60 128 9.9999998634683E-1
61 4 9.999999765728873E-1
61 9 9.999999956612373E-1
61 11 4.999999389285698E-1
61 19 9.999999642676571E-1
61 28 4.9999997899690196E-1
61 43 4.9999997475730706E-1
61 50 9.999999768640433E-1
61 72 9.999999687415161E-1
61 73 9.999999941637071E-1
61 75 9.999999930002665E-1
61 84 9.999999916775699E-1
61 103 9.999999717161421E-1
61 126 9.999999929518307E-1
61 128 9.999999573502E-1
62 7 9.999999972925402E-1
62 13 4.999999265585347E-1
62 22 9.999999665658922E-1
62 25 9.999999682632705E-1
62 31 4.999999179176652E-1
62 35 9.999999992877288E-1
62 42 9.99999995523376E-1
62 65 9.999999692732512E-1
62 81 9.999999855260698E-1
62 102 9.999999964359468E-1
62 109 9.99999987283324E-1
62 113 4.9999997793080503E-1
62 120 9.999999982737974E-1
62 123 9.999999773282024E-1
63 26 4.9999989506283843E-1
63 28 9.999999647687513E-1
63 32 9.999999699064107E-1
63 33 4.999997340237794E-1
63 40 4.999999415730063E-1
63 45 4.9999997552978215E-1
63 46 9.999999951464857E-1
63 48 9.999999591724759E-1
63 50 9.999999611945936E-1
63 51 4.9999993573038254E-1
63 56 9.999999818936752E-1
63 68 4.9999995334770275E-1
63 70 9.999999704105378E-1
63 77 9.999999805273054E-1
63 88 9.999999904650761E-1
63 98 9.99999986461263E-1
63 105 9.999999989192511E-1
63 112 9.999999892699847E-1
64 1 9.99999975174965E-1
64 13 4.999999344949333E-1
64 17 4.999999625394491E-1
64 23 4.9999997252066575E-1
64 31 4.999999298716415E-1
64 41 4.999999825747739E-1
64 44 4.9999985165358046E-1
64 65 4.9999996562152427E-1
64 86 4.999999802609087E-1
64 90 4.9999996220184E-1
64 95 4.999998989531646E-1
64 96 9.999999724218247E-1
64 104 9.999999896163916E-1
64 109 4.9999996746142233E-1
64 113 4.99999978896988E-1
64 121 4.99999980269634E-1
65 7 4.9999997418928177E-1
65 17 4.999999824895025E-1
65 22 4.9999995483890125E-1
65 25 9.999999993337041E-1
65 35 9.99999975764403E-1
65 41 9.999999678452264E-1
65 42 4.9999997237306876E-1
65 62 9.999999692732512E-1
65 64 4.9999996562152427E-1
65 69 4.999999855779714E-1
65 81 9.999999969197279E-1
65 102 9.999999705354988E-1
65 104 4.999999510815854E-1
65 109 9.999999816276778E-1
65 113 9.999999966925662E-1
65 120 9.999999799376955E-1
65 123 9.999999993609197E-1
66 3 4.9999989810495893E-1
66 8 4.999999529775061E-1
66 14 9.999998438870406E-1
66 36 9.999999745780412E-1
66 52 4.999999394432758E-1
66 71 9.999999860208126E-1
66 79 4.999999093337085E-1
66 83 4.999999232240373E-1
66 87 4.99999878561854E-1
66 89 4.999999058158453E-1
66 93 9.999999248428344E-1
66 100 9.999999458009101E-1
66 101 4.999999276123864E-1
66 107 9.999999685385117E-1
66 114 4.999999341790029E-1
67 3 9.999999690589423E-1
67 14 9.999999090016658E-1
67 18 4.9999993180675567E-1
67 29 4.9999993281506094E-1
67 74 9.999999710644981E-1
67 76 9.999999903941721E-1
67 83 4.9999990789112425E-1
67 91 4.9999994172826784E-1
67 106 9.999999953910077E-1
67 107 4.9999991398515786E-1
67 111 9.99999999171057E-1
67 130 9.999999733563792E-1
68 32 9.999999823782508E-1
68 33 4.999997869532464E-1
68 38 9.999998963450885E-1
68 40 9.999999830741358E-1
68 46 4.999999528109907E-1
68 48 4.999999737190637E-1
68 63 4.9999995334770275E-1
68 70 4.999999381596661E-1
68 77 4.99999937904482E-1
68 88 4.9999997007448244E-1
68 98 4.999999397104891E-1
68 105 4.999999428125566E-1
68 112 9.999999590637926E-1
69 5 9.99999988601699E-1
69 17 9.999999914471219E-1
69 23 9.999999818455736E-1
69 25 4.999999878563835E-1
69 30 4.999999892166893E-1
69 37 9.999999936117892E-1
69 41 4.999999860650009E-1
69 57 9.999999848455625E-1
69 65 4.999999855779714E-1
69 78 9.999999813379801E-1
69 81 4.999999757082669E-1
69 85 9.999999968152622E-1
69 90 9.99999982426137E-1
69 113 4.999999831900634E-1
69 118 9.999999839012134E-1
69 122 4.9999998871066603E-1
69 123 4.9999998225355713E-1
69 124 4.999999919288357E-1
69 129 9.99999995874627E-1
70 21 9.999999588968911E-1
70 28 9.999999975651112E-1
70 32 4.999999680929419E-1
70 40 4.9999994867170605E-1
70 46 9.999999894134186E-1
70 48 9.999999814122652E-1
70 50 9.999999870731554E-1
70 56 9.999999936331896E-1
70 63 9.999999704105378E-1
70 68 4.999999381596661E-1
70 75 9.99999969839053E-1
70 77 9.999999985601716E-1
70 84 9.999999729125294E-1
70 88 9.999999839849124E-1
70 98 4.99999958827533E-1
70 105 9.999999705079429E-1
70 108 4.999999657610077E-1
70 112 4.9999997835020243E-1
71 3 4.999999026260804E-1
71 8 4.999999107565035E-1
71 14 9.999998740547308E-1
71 36 9.999999970985429E-1
71 39 9.999998286904721E-1
71 66 9.999999860208126E-1
71 80 4.9999992230946333E-1
71 87 4.99999849089587E-1
71 89 9.999998390521384E-1
71 93 9.999999749945151E-1
71 100 9.999999823728233E-1
71 101 9.999999311466311E-1
71 107 9.999999238478123E-1
71 116 4.9999991034026736E-1
72 4 4.9999995955669985E-1
72 9 9.999999729747553E-1
72 10 9.999999902108874E-1
72 19 9.999999824138601E-1
72 27 4.999999699209154E-1
72 43 9.99999994405248E-1
72 60 9.999999756103176E-1
72 61 9.999999687415161E-1
72 73 9.999999614374567E-1
72 75 4.999999760897743E-1
72 103 9.9999999648973E-1
72 119 4.9999994510508305E-1
72 126 9.999999821457036E-1
72 127 9.999999829295259E-1
72 128 9.999999982979347E-1
73 4 9.999999917845125E-1
73 9 9.999999989677424E-1
73 11 4.9999995567198874E-1
73 19 4.9999996892319754E-1
73 43 4.999999660557259E-1
73 50 4.999999779745635E-1
73 61 9.999999941637071E-1
73 72 9.999999614374567E-1
73 75 9.99999975309327E-1
73 84 9.999999757468083E-1
73 103 9.999999559691501E-1
73 126 9.999999773517906E-1
73 128 9.999999451132616E-1
74 3 9.999999022642222E-1
74 18 9.999999603120108E-1
74 29 9.999999611500899E-1
74 67 9.999999710644981E-1
74 76 9.999999937228456E-1
74 82 4.9999993641867646E-1
74 83 4.999999575663397E-1
74 91 9.99999970632897E-1
74 106 9.999999578187296E-1
74 110 4.9999994223235367E-1
74 111 9.999999604985796E-1
74 130 9.999999999070975E-1
75 4 4.9999997618682157E-1
75 9 9.999999776522404E-1
75 11 4.9999992286220735E-1
75 19 9.99999969872425E-1
75 21 4.999999797554328E-1
75 28 9.999999843030594E-1
75 50 9.999999924246952E-1
75 56 9.999999768849781E-1
75 61 9.999999930002665E-1
75 70 9.99999969839053E-1
75 72 4.999999760897743E-1
75 73 9.99999975309327E-1
75 77 9.99999970055478E-1
75 84 9.999999988684135E-1
75 103 9.999999650669622E-1
75 126 9.999999924591892E-1
76 3 9.999999450853015E-1
76 14 9.999998812564992E-1
76 18 4.99999961929517E-1
76 29 4.9999996328273416E-1
76 67 9.999999903941721E-1
76 74 9.999999937228456E-1
76 83 4.999999439202691E-1
76 91 4.999999694851256E-1
76 106 9.999999840850243E-1
76 107 4.9999993831493567E-1
76 111 9.999999842915938E-1
76 130 9.999999943578758E-1
77 28 9.999999972092778E-1
77 32 4.999999705006555E-1
77 40 4.9999994385586444E-1
77 45 4.999999372674516E-1
77 46 9.999999946347394E-1
77 48 9.999999766551718E-1
77 50 9.999999903527769E-1
77 56 9.999999978187093E-1
77 63 9.999999805273054E-1
77 68 4.99999937904482E-1
77 70 9.999999985601716E-1
77 75 9.99999970055478E-1
77 84 9.999999753764267E-1
77 88 9.999999870874354E-1
77 98 4.999999681269319E-1
77 105 9.999999815486298E-1
77 108 4.9999995543747944E-1
77 112 9.999999637559132E-1
78 2 9.999999931711769E-1
78 18 4.999999790247027E-1
78 29 4.999999788219739E-1
78 30 9.999999990040821E-1
78 37 9.999999967630037E-1
78 55 9.999999983542138E-1
78 57 9.999999987167177E-1
78 69 9.999999813379801E-1
78 82 9.999999896092416E-1
78 85 9.999999935448431E-1
78 91 4.9999997327792695E-1
78 110 9.999999910662029E-1
78 122 9.999999998033442E-1
78 124 9.999999922132757E-1
78 129 9.999999923210311E-1
79 2 4.999999648054147E-1
79 6 9.999999714590262E-1
79 8 9.999999782899999E-1
79 12 9.999999856956531E-1
79 15 4.999999642504648E-1
79 52 9.999999549836005E-1
79 53 9.999999818457527E-1
79 58 9.999999872903033E-1
79 66 4.999999093337085E-1
79 82 4.9999996729325424E-1
79 83 4.9999997502387483E-1
79 87 4.9999986922001477E-1
79 92 4.999999507549375E-1
79 97 9.999999993076069E-1
79 107 4.9999994881517656E-1
79 114 9.99999994569828E-1
79 118 4.999999648004157E-1
80 16 9.999999922366715E-1
80 21 4.9999996960895604E-1
80 24 9.999998972179132E-1
80 34 9.999999405453084E-1
80 36 4.99999934756854E-1
80 38 4.9999992119210684E-1
80 39 4.999999160618489E-1
80 47 9.99999978936904E-1
80 60 4.999999519690655E-1
80 71 4.9999992230946333E-1
80 89 4.9999986758339743E-1
80 93 9.999999408582374E-1
80 100 9.999999007435786E-1
80 101 9.999999824902563E-1
80 108 9.999999497686131E-1
80 115 9.99999952661384E-1
80 116 9.999999990214322E-1
81 7 9.999999704034261E-1
81 22 4.9999996812566516E-1
81 25 9.999999958222955E-1
81 35 9.999999899643338E-1
81 42 9.99999967741609E-1
81 62 9.999999855260698E-1
81 65 9.999999969197279E-1
81 69 4.999999757082669E-1
81 102 9.999999859974363E-1
81 109 9.999999910850976E-1
81 113 9.999999910567634E-1
81 120 9.999999925659729E-1
81 123 9.999999989542963E-1
82 2 9.99999999545391E-1
82 8 4.999999659557149E-1
82 12 9.999999811968603E-1
82 18 4.9999998376846083E-1
82 29 4.999999859835533E-1
82 30 9.999999941608466E-1
82 37 4.9999998894462566E-1
82 55 9.999999948971875E-1
82 57 9.999999812369663E-1
82 58 9.999999769335896E-1
82 74 4.9999993641867646E-1
82 78 9.999999896092416E-1
82 79 4.9999996729325424E-1
82 83 4.999999866288763E-1
82 91 4.999999807003685E-1
82 97 4.9999997271636065E-1
82 110 9.999999994301996E-1
82 114 4.9999996897392895E-1
82 122 9.999999908145565E-1
82 124 9.999999884079481E-1
82 129 4.9999998771635984E-1
83 2 4.99999982932757E-1
83 8 9.999999814905749E-1
83 12 9.999999738755992E-1
83 18 9.99999956304775E-1
83 29 9.999999668714463E-1
83 58 9.999999841043938E-1
83 66 4.999999232240373E-1
83 67 4.9999990789112425E-1
83 74 4.999999575663397E-1
83 76 4.999999439202691E-1
83 79 4.9999997502387483E-1
83 82 4.999999866288763E-1
83 91 9.999999598212642E-1
83 97 9.999999533459255E-1
83 106 4.9999990892202134E-1
83 107 9.999999511301763E-1
83 110 4.9999998580455707E-1
83 111 4.9999989732633743E-1
83 114 9.999999708078608E-1
83 130 4.999999547127927E-1
84 4 9.999999584416961E-1
84 9 9.999999759678219E-1
84 11 4.999999326385631E-1
84 19 4.999999785321671E-1
84 21 4.99999974496344E-1
84 28 9.999999867154201E-1
84 50 9.999999961443744E-1
84 56 9.999999834064079E-1
84 61 9.999999916775699E-1
84 70 9.999999729125294E-1
84 73 9.999999757468083E-1
84 75 9.999999988684135E-1
84 77 9.999999753764267E-1
84 126 9.999999862224771E-1
85 2 4.999999895333014E-1
85 5 9.999999856927159E-1
85 17 9.999999864961515E-1
85 23 4.9999998709060467E-1
85 30 9.999999916329727E-1
85 37 9.99999999397277E-1
85 55 9.999999856368633E-1
85 57 9.999999948680558E-1
85 69 9.999999968152622E-1
85 78 9.999999935448431E-1
85 90 4.999999899752593E-1
85 118 9.999999870325552E-1
85 122 9.99999991139801E-1
85 124 9.999999923474232E-1
85 129 9.999999991385763E-1
86 1 9.999999885922813E-1
86 5 9.999999893807354E-1
86 6 9.99999977537438E-1
86 15 4.9999996839805716E-1
86 17 9.999999882230182E-1
86 23 9.999999957306404E-1
86 41 9.999999966018781E-1
86 44 4.999997714717164E-1
86 53 9.999999687075315E-1
86 64 4.999999802609087E-1
86 90 9.999999926590282E-1
86 92 4.9999992646626495E-1
86 96 4.999999620318122E-1
86 104 4.9999995509211514E-1
86 113 4.9999998085159836E-1
86 118 9.999999815366765E-1
86 121 9.99999999999998E-1
86 129 4.999999804368318E-1
87 8 4.999998552519769E-1
87 15 4.9999986063014046E-1
87 39 4.999998700189925E-1
87 52 9.999999081808465E-1
87 66 4.99999878561854E-1
87 71 4.99999849089587E-1
87 79 4.9999986922001477E-1
87 89 9.999998632975621E-1
87 92 4.999999151769388E-1
87 97 4.999998561289447E-1
87 107 4.999998326027517E-1
87 114 4.9999986569828914E-1
88 28 9.999999727270429E-1
88 32 9.999999832883958E-1
88 38 4.999999172030858E-1
88 40 4.9999996783987816E-1
88 45 4.999999523093861E-1
88 46 9.999999958781083E-1
88 48 9.999999889630331E-1
88 50 9.99999957276779E-1
88 56 9.999999799051225E-1
88 63 9.999999904650761E-1
88 68 4.9999997007448244E-1
88 70 9.999999839849124E-1
88 77 9.999999870874354E-1
88 98 9.999999583042719E-1
88 105 9.999999852099452E-1
88 112 9.999999932025735E-1
89 36 4.999999042591308E-1
89 38 9.999998387121778E-1
89 39 9.999999802951706E-1
89 66 4.999999058158453E-1
89 71 9.999998390521384E-1
89 80 4.9999986758339743E-1
89 87 9.999998632975621E-1
89 93 9.999998632626554E-1
89 100 4.9999987953188046E-1
89 101 4.99999906081961E-1
89 115 4.9999993314428876E-1
89 116 4.9999986203669394E-1
90 1 4.9999998201623236E-1
90 5 9.999999993256606E-1
90 6 4.9999998639134496E-1
90 15 4.999999525962837E-1
90 17 9.999999978158511E-1
90 23 9.99999997873178E-1
90 41 9.999999913436443E-1
90 53 9.999999762763008E-1
90 64 4.9999996220184E-1
90 69 9.99999982426137E-1
90 85 4.999999899752593E-1
90 86 9.999999926590282E-1
90 96 4.999999348193667E-1
90 118 9.999999971882639E-1
90 121 9.999999926530561E-1
90 124 4.9999999356141145E-1
90 129 9.999999867893912E-1
91 2 4.999999784508992E-1
91 18 9.999999990806008E-1
91 29 9.999999991563373E-1
91 30 4.9999997302745713E-1
91 55 4.999999809828601E-1
91 67 4.9999994172826784E-1
91 74 9.99999970632897E-1
91 76 4.999999694851256E-1
91 78 4.9999997327792695E-1
91 82 4.999999807003685E-1
91 83 9.999999598212642E-1
91 106 4.999999312493808E-1
91 110 4.9999998443551164E-1
91 111 4.99999931570074E-1
91 122 4.9999997641706007E-1
91 130 9.999999680370059E-1
92 1 4.9999995245026624E-1
92 6 4.9999996134955044E-1
92 12 4.9999991785097037E-1
92 15 9.999999822110129E-1
92 44 4.9999986631799437E-1
92 52 9.9999991921606E-1
92 53 4.999999443995832E-1
92 79 4.999999507549375E-1
92 86 4.9999992646626495E-1
92 87 4.999999151769388E-1
92 96 9.999998989142994E-1
92 97 4.999999479045765E-1
92 114 4.9999992913183927E-1
92 121 4.9999992646420527E-1
93 14 4.9999992104402846E-1
93 16 4.999999520204071E-1
93 36 9.999999799415112E-1
93 39 9.99999892250428E-1
93 47 4.9999992481616606E-1
93 66 9.999999248428344E-1
93 71 9.999999749945151E-1
93 80 9.999999408582374E-1
93 89 9.999998632626554E-1
93 100 9.999999792099362E-1
93 101 9.999999875119385E-1
93 115 9.999999141814815E-1
93 116 9.99999926717926E-1
94 20 9.999999415352548E-1
94 26 9.999999722842929E-1
94 33 9.999997464207967E-1
94 45 4.999999189169522E-1
94 49 9.999998763752429E-1
94 51 9.999999282612485E-1
94 54 9.999999829058194E-1
94 59 9.999998976719685E-1
94 98 4.9999987095613285E-1
94 99 9.999998215449276E-1
94 117 9.999999897385733E-1
94 125 9.999998864987047E-1
95 1 4.9999984051280394E-1
95 13 9.999998886781823E-1
95 15 4.999998009411455E-1
95 22 4.999998597568182E-1
95 31 9.999998988853637E-1
95 44 9.999998822126241E-1
95 64 4.999998989531646E-1
95 96 4.9999991654618064E-1
95 102 4.9999981244335073E-1
95 104 4.999999347625833E-1
95 109 4.999998336040969E-1
95 113 4.9999980790785387E-1
96 1 9.999999693926012E-1
96 6 4.9999994977795714E-1
96 15 9.9999994737357E-1
96 23 4.9999994396287745E-1
96 41 4.999999557985913E-1
96 44 4.999999190142195E-1
96 64 9.999999724218247E-1
96 86 4.999999620318122E-1
96 90 4.999999348193667E-1
96 92 9.999998989142994E-1
96 95 4.9999991654618064E-1
96 104 9.999999610767007E-1
96 113 4.999999340309504E-1
96 121 4.999999620408167E-1
97 2 4.999999706907762E-1
97 6 9.999999769848777E-1
97 8 9.999999754133797E-1
97 12 9.999999906763196E-1
97 15 4.999999647950076E-1
97 52 9.999999433104245E-1
97 53 9.999999877578649E-1
97 58 9.999999905450363E-1
97 79 9.999999993076069E-1
97 82 4.9999997271636065E-1
97 83 9.999999533459255E-1
97 87 4.999998561289447E-1
97 92 4.999999479045765E-1
97 107 4.9999994506669404E-1
97 114 9.999999927111595E-1
97 118 4.9999997140485586E-1
98 11 4.9999992690799716E-1
98 20 4.999997495511856E-1
98 26 4.9999994150565863E-1
98 32 9.999999510276611E-1
98 33 4.9999979440849357E-1
98 45 9.999999888987199E-1
98 46 9.999999654855304E-1
98 49 4.9999978325505157E-1
98 50 4.999999580905721E-1
98 51 9.999999401876103E-1
98 54 4.999998394910906E-1
98 56 4.999999718982433E-1
98 59 4.9999973974519424E-1
98 63 9.99999986461263E-1
98 68 4.999999397104891E-1
98 70 4.99999958827533E-1
98 77 4.999999681269319E-1
98 88 9.999999583042719E-1
98 94 4.9999987095613285E-1
98 105 9.999999861258669E-1
98 112 9.999999728881448E-1
98 117 4.99999914776497E-1
98 125 4.9999975311758565E-1
99 11 4.999996559601791E-1
99 20 9.999998429077649E-1
99 26 4.999998317088652E-1
99 33 4.9999965612111885E-1
99 45 4.999996767608033E-1
99 49 9.999998638350456E-1
99 51 4.999997797791543E-1
99 54 9.999997939866084E-1
99 59 9.999999409551658E-1
99 94 9.999998215449276E-1
99 117 9.999997492970483E-1
99 125 9.999999146200278E-1
100 3 9.999998649106238E-1
100 14 9.999999337135064E-1
100 16 4.9999993856707015E-1
100 34 4.99999923487122E-1
100 36 9.999999937411115E-1
100 39 4.999998903139428E-1
100 66 9.999999458009101E-1
100 71 9.999999823728233E-1
100 80 9.999999007435786E-1
100 89 4.9999987953188046E-1
100 93 9.999999792099362E-1
100 101 9.999999607456751E-1
100 107 9.999998810839515E-1
100 116 4.9999994005123577E-1
101 16 9.999999603055054E-1
101 34 4.999999507479013E-1
101 36 9.999999459426233E-1
101 39 9.999998725251834E-1
101 47 4.999999615188576E-1
101 66 4.999999276123864E-1
101 71 9.999999311466311E-1
101 80 9.999999824902563E-1
101 89 4.99999906081961E-1
101 93 9.999999875119385E-1
101 100 9.999999607456751E-1
101 108 4.99999948504338E-1
101 115 9.999999419479679E-1
101 116 9.999999740475689E-1
102 7 9.99999992767686E-1
102 13 4.9999994588162294E-1
102 22 9.999999803413823E-1
102 25 9.999999665557147E-1
102 31 4.999999384280708E-1
102 35 9.99999998268201E-1
102 42 9.999999944187958E-1
102 62 9.999999964359468E-1
102 65 9.999999705354988E-1
102 81 9.999999859974363E-1
102 95 4.9999981244335073E-1
102 109 9.999999958184256E-1
102 113 9.999999636994161E-1
102 120 9.999999982204604E-1
102 123 9.999999773373792E-1
103 4 4.9999995485775256E-1
103 9 9.999999681592806E-1
103 10 9.999999939843819E-1
103 19 9.999999946098461E-1
103 21 4.9999997513156197E-1
103 24 4.999999483438392E-1
103 27 4.999999737921987E-1
103 43 9.99999996703101E-1
103 47 4.9999996162175203E-1
103 60 9.999999852975545E-1
103 61 9.999999717161421E-1
103 72 9.9999999648973E-1
103 73 9.999999559691501E-1
103 75 9.999999650669622E-1
103 119 4.9999994696728967E-1
103 126 9.999999898550609E-1
103 127 9.999999898082059E-1
103 128 9.999999972577055E-1
104 1 4.9999996761512594E-1
104 13 9.999999276767512E-1
104 22 4.9999995227746424E-1
104 31 9.999999220494669E-1
104 41 4.9999996034299177E-1
104 44 4.9999986955829906E-1
104 64 9.999999896163916E-1
104 65 4.999999510815854E-1
104 86 4.9999995509211514E-1
104 95 4.999999347625833E-1
104 96 9.999999610767007E-1
104 109 4.9999996672129654E-1
104 113 4.999999656120838E-1
104 121 4.999999551053269E-1
105 11 4.999999278576334E-1
105 26 4.99999896871777E-1
105 28 9.999999680986343E-1
105 32 9.999999574267854E-1
105 45 9.999999523119705E-1
105 46 9.999999941021067E-1
105 48 4.9999997515919153E-1
105 50 9.999999686193893E-1
105 51 4.999999382775444E-1
105 56 9.999999855997755E-1
105 63 9.999999989192511E-1
105 68 4.999999428125566E-1
105 70 9.999999705079429E-1
105 77 9.999999815486298E-1
105 88 9.999999852099452E-1
105 98 9.999999861258669E-1
105 112 9.99999981379973E-1
106 3 9.999999872547889E-1
106 14 9.99999944662662E-1
106 18 4.9999991988300957E-1
106 29 4.999999226934432E-1
106 67 9.999999953910077E-1
106 74 9.999999578187296E-1
106 76 9.999999840850243E-1
106 83 4.9999990892202134E-1
106 91 4.999999312493808E-1
106 107 4.9999992857984027E-1
106 111 9.99999996409546E-1
106 130 9.999999596334311E-1
107 3 4.999999229814107E-1
107 8 9.999999694046737E-1
107 12 4.9999994288670246E-1
107 14 4.9999992403230703E-1
107 36 9.999999126771898E-1
107 52 9.999998840545453E-1
107 58 4.9999995739562586E-1
107 66 9.999999685385117E-1
107 67 4.9999991398515786E-1
107 71 9.999999238478123E-1
107 76 4.9999993831493567E-1
107 79 4.9999994881517656E-1
107 83 9.999999511301763E-1
107 87 4.999998326027517E-1
107 97 4.9999994506669404E-1
107 100 9.999998810839515E-1
107 106 4.9999992857984027E-1
107 111 4.9999990853967496E-1
107 114 9.999999390667519E-1
107 130 4.999999333176848E-1
108 16 9.999999315614405E-1
108 21 9.999999616174347E-1
108 28 4.9999995778756423E-1
108 38 9.999999460652866E-1
108 39 4.999999242384461E-1
108 40 9.999999236264971E-1
108 47 9.999999690095136E-1
108 48 9.999999522357116E-1
108 70 4.999999657610077E-1
108 77 4.9999995543747944E-1
108 80 9.999999497686131E-1
108 101 4.99999948504338E-1
108 115 9.999999734763242E-1
108 116 9.999999611815586E-1
109 7 9.999999778578216E-1
109 13 4.999999487005439E-1
109 22 9.999999722863114E-1
109 25 9.999999762597989E-1
109 31 4.9999994161720956E-1
109 35 9.999999924799485E-1
109 42 9.999999806818881E-1
109 62 9.99999987283324E-1
109 64 4.9999996746142233E-1
109 65 9.999999816276778E-1
109 81 9.999999910850976E-1
109 95 4.999998336040969E-1
109 102 9.999999958184256E-1
109 104 4.9999996672129654E-1
109 113 9.999999810168916E-1
109 120 9.999999944209982E-1
109 123 9.999999852797642E-1
110 2 9.999999990134719E-1
110 8 4.9999996214058684E-1
110 12 9.999999743911124E-1
110 18 9.999999748730982E-1
110 29 9.999999782324822E-1
110 30 9.999999943830271E-1
110 37 4.999999892446865E-1
110 55 9.999999966377893E-1
110 57 9.999999837591305E-1
110 58 4.9999998521632544E-1
110 74 4.9999994223235367E-1
110 78 9.999999910662029E-1
110 82 9.999999994301996E-1
110 83 4.9999998580455707E-1
110 91 4.9999998443551164E-1
110 122 9.999999926652458E-1
110 124 4.999999928292256E-1
110 130 4.9999993930194414E-1
111 3 9.999999754530468E-1
111 14 9.999999190397952E-1
111 18 4.9999992081097955E-1
111 29 4.9999992200367854E-1
111 67 9.99999999171057E-1
111 74 9.999999604985796E-1
111 76 9.999999842915938E-1
111 83 4.9999989732633743E-1
111 91 4.99999931570074E-1
111 106 9.99999996409546E-1
111 107 4.9999990853967496E-1
111 130 9.999999631502777E-1
112 28 4.999999704467765E-1
112 32 9.999999951117414E-1
112 33 4.9999976747781416E-1
112 40 4.999999678541704E-1
112 45 4.9999996602301844E-1
112 46 9.999999845997125E-1
112 48 9.999999736309496E-1
112 51 4.9999991989927883E-1
112 56 9.99999956567649E-1
112 63 9.999999892699847E-1
112 68 9.999999590637926E-1
112 70 4.9999997835020243E-1
112 77 9.999999637559132E-1
112 88 9.999999932025735E-1
112 98 9.999999728881448E-1
112 105 9.99999981379973E-1
113 7 4.999999661885631E-1
113 17 4.999999854202476E-1
113 23 9.999999728960552E-1
113 25 9.99999993515385E-1
113 35 9.999999652324142E-1
113 41 9.999999809531112E-1
113 42 4.999999657469505E-1
113 62 4.9999997793080503E-1
113 64 4.99999978896988E-1
113 65 9.999999966925662E-1
113 69 4.999999831900634E-1
113 81 9.999999910567634E-1
113 86 4.9999998085159836E-1
113 95 4.9999980790785387E-1
113 96 4.999999340309504E-1
113 102 9.999999636994161E-1
113 104 4.999999656120838E-1
113 109 9.999999810168916E-1
113 120 9.999999707373303E-1
113 121 4.9999998085627106E-1
113 123 9.999999941354452E-1
114 2 4.9999996524760304E-1
114 6 4.9999997191002293E-1
114 8 9.99999994570864E-1
114 12 9.999999827693627E-1
114 52 9.999999533944385E-1
114 53 9.999999639606302E-1
114 58 9.999999903663002E-1
114 66 4.999999341790029E-1
114 79 9.99999994569828E-1
114 82 4.9999996897392895E-1
114 83 9.999999708078608E-1
114 87 4.9999986569828914E-1
114 92 4.9999992913183927E-1
114 97 9.999999927111595E-1
114 107 9.999999390667519E-1
115 16 4.9999995609055176E-1
115 21 4.999999439251552E-1
115 36 4.9999990572170294E-1
115 38 9.999999633005577E-1
115 39 9.999999457058534E-1
115 40 9.99999882878823E-1
115 47 9.999999261396361E-1
115 48 4.9999993529160597E-1
115 80 9.99999952661384E-1
115 89 4.9999993314428876E-1
115 93 9.999999141814815E-1
115 101 9.999999419479679E-1
115 108 9.999999734763242E-1
115 116 9.999999560814177E-1
116 16 9.999999924580893E-1
116 19 4.999999517224432E-1
116 21 9.999999526389666E-1
116 27 4.999999485299578E-1
116 34 9.999999379372403E-1
116 36 4.999999233494504E-1
116 38 4.999999272771628E-1
116 39 4.9999991408832095E-1
116 47 9.999999862654785E-1
116 60 4.999999555468127E-1
116 71 4.9999991034026736E-1
116 80 9.999999990214322E-1
116 89 4.9999986203669394E-1
116 93 9.99999926717926E-1
116 100 4.9999994005123577E-1
116 101 9.999999740475689E-1
116 108 9.999999611815586E-1
116 115 9.999999560814177E-1
117 11 4.999998869831888E-1
117 20 9.999998863178209E-1
117 26 9.999999933850454E-1
117 33 4.99999862175916E-1
117 45 9.999999053327437E-1
117 49 9.999998780407878E-1
117 51 9.999999713011499E-1
117 54 9.999999562795153E-1
117 59 9.999998744486641E-1
117 94 9.999999897385733E-1
117 98 4.99999914776497E-1
117 99 9.999997492970483E-1
117 125 9.999998727376684E-1
118 5 9.99999997084945E-1
118 6 4.999999847590405E-1
118 17 9.999999943556742E-1
118 23 9.999999906295031E-1
118 30 9.999999836422091E-1
118 37 9.999999844787403E-1
118 41 4.999999894777925E-1
118 53 4.99999990098849E-1
118 55 4.9999998618734026E-1
118 69 9.999999839012134E-1
118 79 4.999999648004157E-1
118 85 9.999999870325552E-1
118 86 9.999999815366765E-1
118 90 9.999999971882639E-1
118 97 4.9999997140485586E-1
118 121 9.99999981526164E-1
118 124 9.999999961385034E-1
118 129 9.999999928529475E-1
119 10 4.9999996921237605E-1
119 16 4.9999995449433204E-1
119 19 4.999999457564769E-1
119 24 9.999999962007988E-1
119 27 9.999999889437908E-1
119 34 9.999999806940141E-1
119 43 4.999999637006908E-1
119 60 4.99999975363632E-1
119 72 4.9999994510508305E-1
119 103 4.9999994696728967E-1
119 127 4.999999734704721E-1
119 128 4.9999995712151585E-1
120 7 9.999999920751073E-1
120 13 4.9999993174551877E-1
120 22 9.999999668569465E-1
120 25 9.999999778702351E-1
120 31 4.999999234178289E-1
120 35 9.99999999757942E-1
120 42 9.999999912712815E-1
120 62 9.999999982737974E-1
120 65 9.999999799376955E-1
120 81 9.999999925659729E-1
120 102 9.999999982204604E-1
120 109 9.999999944209982E-1
120 113 9.999999707373303E-1
120 123 9.999999860252798E-1
121 1 9.999999885973204E-1
121 5 9.999999893748449E-1
121 6 9.999999775283087E-1
121 15 4.9999996839736377E-1
121 17 9.999999882185593E-1
121 23 9.999999957286633E-1
121 41 9.999999966041169E-1
121 44 4.999997714918739E-1
121 53 9.999999686931255E-1
121 64 4.99999980269634E-1
121 86 9.99999999999998E-1
121 90 9.999999926530561E-1
121 92 4.9999992646420527E-1
121 96 4.999999620408167E-1
121 104 4.999999551053269E-1
121 113 4.9999998085627106E-1
121 118 9.99999981526164E-1
121 129 4.9999998043110416E-1
122 2 9.999999939062583E-1
122 18 4.9999998179824146E-1
122 29 4.9999998158990433E-1
122 30 9.999999987909871E-1
122 37 9.999999950456174E-1
122 55 9.999999991658802E-1
122 57 9.999999982523488E-1
122 69 4.9999998871066603E-1
122 78 9.999999998033442E-1
122 82 9.999999908145565E-1
122 85 9.99999991139801E-1
122 91 4.9999997641706007E-1
122 110 9.999999926652458E-1
122 124 9.999999904536846E-1
122 129 9.999999896907865E-1
123 7 9.999999589670161E-1
123 22 4.999999598975666E-1
123 25 9.999999988992225E-1
123 35 9.999999826330589E-1
123 41 4.9999997916040245E-1
123 42 4.9999997764841164E-1
123 62 9.999999773282024E-1
123 65 9.999999993609197E-1
123 69 4.9999998225355713E-1
123 81 9.999999989542963E-1
123 102 9.999999773373792E-1
123 109 9.999999852797642E-1
123 113 9.999999941354452E-1
123 120 9.999999860252798E-1
124 2 9.999999920359851E-1
124 5 9.999999887143989E-1
124 12 4.9999998669709245E-1
124 17 4.999999927585807E-1
124 23 4.9999998824611824E-1
124 30 9.999999956003784E-1
124 37 9.99999992660823E-1
124 53 4.9999998583883803E-1
124 55 9.999999891326632E-1
124 57 9.999999872690184E-1
124 58 4.9999997982473476E-1
124 69 4.999999919288357E-1
124 78 9.999999922132757E-1
124 82 9.999999884079481E-1
124 85 9.999999923474232E-1
124 90 4.9999999356141145E-1
124 110 4.999999928292256E-1
124 118 9.999999961385034E-1
124 122 9.999999904536846E-1
124 129 9.999999958815707E-1
125 11 4.999998488896177E-1
125 20 9.999997710656511E-1
125 26 9.999998122139216E-1
125 45 4.999998145344849E-1
125 49 9.99999994098388E-1
125 51 4.9999988593723E-1
125 54 9.999998030141747E-1
125 59 9.999999972881838E-1
125 94 9.999998864987047E-1
125 98 4.9999975311758565E-1
125 99 9.999999146200278E-1
125 117 9.999998727376684E-1
126 4 4.9999997232707627E-1
126 9 9.999999839637714E-1
126 10 9.999999693777165E-1
126 19 9.999999888772674E-1
126 21 4.9999998044955496E-1
126 43 9.999999751791543E-1
126 50 9.999999698244881E-1
126 60 4.999999791018835E-1
126 61 9.999999929518307E-1
126 72 9.999999821457036E-1
126 73 9.999999773517906E-1
126 75 9.999999924591892E-1
126 84 9.999999862224771E-1
126 103 9.999999898550609E-1
126 127 4.9999998170588095E-1
126 128 9.999999776776434E-1
127 10 9.999999989392129E-1
127 16 4.9999996847599565E-1
127 19 9.999999893895746E-1
127 21 4.999999737132578E-1
127 24 9.999999511338606E-1
127 27 9.999999832356776E-1
127 34 9.999999664727515E-1
127 43 9.999999968757944E-1
127 47 4.999999702552194E-1
127 60 9.999999992792912E-1
127 72 9.999999829295259E-1
127 103 9.999999898082059E-1
127 119 4.999999734704721E-1
127 126 4.9999998170588095E-1
127 128 9.999999917802377E-1
128 9 9.999999591340976E-1
128 10 9.999999965919174E-1
128 19 9.999999865332945E-1
128 24 4.999999557947919E-1
128 27 9.999999582013086E-1
128 43 9.999999987697298E-1
128 60 9.9999998634683E-1
128 61 9.999999573502E-1
128 72 9.999999982979347E-1
128 73 9.999999451132616E-1
128 103 9.999999972577055E-1
128 119 4.9999995712151585E-1
128 126 9.999999776776434E-1
128 127 9.999999917802377E-1
129 2 4.999999907906965E-1
129 5 9.999999910190596E-1
129 17 9.999999908824241E-1
129 23 4.999999903704648E-1
129 30 9.999999922000598E-1
129 37 9.9999999807108E-1
129 41 4.999999832756136E-1
129 55 4.999999924484642E-1
129 57 9.999999918480683E-1
129 69 9.99999995874627E-1
129 78 9.999999923210311E-1
129 82 4.9999998771635984E-1
129 85 9.999999991385763E-1
129 86 4.999999804368318E-1
129 90 9.999999867893912E-1
129 118 9.999999928529475E-1
129 121 4.9999998043110416E-1
129 122 9.999999896907865E-1
129 124 9.999999958815707E-1
130 3 9.999999043138165E-1
130 18 9.999999574780307E-1
130 29 9.999999580044622E-1
130 67 9.999999733563792E-1
130 74 9.999999999070975E-1
130 76 9.999999943578758E-1
130 83 4.999999547127927E-1
130 91 9.999999680370059E-1
130 106 9.999999596334311E-1
130 107 4.999999333176848E-1
130 110 4.9999993930194414E-1
130 111 9.999999631502777E-1
