%%MatrixMarket matrix coordinate real general
%
130 130 1316
1 6 9.999999738933676E-1
1 15 9.999999688850894E-1
1 23 4.9999998534286033E-1
1 41 4.9999998931174844E-1
1 44 4.9999983683872445E-1
1 64 9.99999975174965E-1
1 86 9.999999885922813E-1
1 92 4.9999995245026624E-1
1 95 4.9999984051280394E-1
1 96 9.999999693926012E-1
1 104 4.9999996761512594E-1
1 121 9.999999885973204E-1
2 12 4.999999893783348E-1
2 18 4.9999998216004005E-1
2 29 4.999999840203728E-1
2 30 9.999999969111928E-1
2 55 9.999999967584304E-1
2 57 4.99999993014297E-1
2 78 9.999999931711769E-1
2 82 9.99999999545391E-1
2 83 4.99999982932757E-1
2 110 9.999999990134719E-1
2 122 9.999999939062583E-1
2 124 9.999999920359851E-1
3 14 9.999999834465323E-1
3 67 9.999999690589423E-1
3 74 4.999999511321111E-1
3 76 9.999999450853015E-1
3 100 4.999999324553119E-1
3 106 9.999999872547889E-1
3 111 9.999999754530468E-1
3 130 4.9999995215690823E-1
4 9 9.999999850467005E-1
4 11 9.99999956884235E-1
4 50 4.999999708450652E-1
4 61 9.999999765728873E-1
4 73 9.999999917845125E-1
4 75 4.9999997618682157E-1
4 84 4.9999997922084805E-1
4 126 4.9999997232707627E-1
5 17 9.999999994297357E-1
5 23 9.999999977397293E-1
5 41 9.999999908358268E-1
5 69 4.999999943008495E-1
5 86 9.999999893807354E-1
5 90 9.999999993256606E-1
5 118 9.99999997084945E-1
5 121 9.999999893748449E-1
5 129 4.999999955095298E-1
6 1 9.999999738933676E-1
6 15 9.999999720136398E-1
6 53 9.999999948039637E-1
6 79 9.999999714590262E-1
6 86 4.99999988768719E-1
6 90 4.9999998639134496E-1
6 92 4.9999996134955044E-1
6 96 4.9999994977795714E-1
6 97 9.999999769848777E-1
6 121 4.9999998876415436E-1
7 22 9.99999972944457E-1
7 35 9.999999945854913E-1
7 42 9.999999990293501E-1
7 62 9.999999972925402E-1
7 81 4.9999998520171307E-1
7 102 9.99999992767686E-1
7 109 4.999999889289108E-1
7 120 9.999999920751073E-1
8 12 4.9999998484301234E-1
8 52 9.999999397163816E-1
8 58 9.999999831534642E-1
8 66 4.999999529775061E-1
8 79 9.999999782899999E-1
8 83 9.999999814905749E-1
8 97 9.999999754133797E-1
8 107 9.999999694046737E-1
8 114 9.99999994570864E-1
9 4 9.999999850467005E-1
9 11 4.999999456492664E-1
9 61 9.999999956612373E-1
9 72 4.9999998648737765E-1
9 73 9.999999989677424E-1
9 75 9.999999776522404E-1
9 84 9.999999759678219E-1
9 103 4.999999840796403E-1
9 126 9.999999839637714E-1
10 19 9.99999989563496E-1
10 24 4.9999996991783613E-1
10 27 9.999999767923001E-1
10 34 4.9999997722076417E-1
10 43 9.99999999402701E-1
10 60 9.999999964886256E-1
10 72 9.999999902108874E-1
10 103 9.999999939843819E-1
10 119 4.9999996921237605E-1
10 127 9.999999989392129E-1
10 128 9.999999965919174E-1
11 4 9.99999956884235E-1
11 9 4.999999456492664E-1
11 45 4.999999308985719E-1
11 50 4.999999293288867E-1
11 51 4.999999292671473E-1
11 61 4.999999389285698E-1
11 73 4.9999995567198874E-1
11 84 4.999999326385631E-1
12 2 4.999999893783348E-1
12 8 4.9999998484301234E-1
12 52 4.999999458541726E-1
12 53 9.999999895171459E-1
12 58 9.9999999787714E-1
12 79 9.999999856956531E-1
12 82 4.9999999059843014E-1
12 83 4.999999869377996E-1
12 97 9.999999906763196E-1
12 110 4.999999871955562E-1
12 114 9.999999827693627E-1
13 22 9.999999552501937E-1
13 31 9.999999995188538E-1
13 42 4.9999994102399964E-1
13 64 4.999999344949333E-1
13 95 9.999998886781823E-1
13 102 4.9999994588162294E-1
13 104 9.999999276767512E-1
13 109 4.999999487005439E-1
14 3 9.999999834465323E-1
14 36 9.9999990392847E-1
14 67 9.999999090016658E-1
14 71 9.999998740547308E-1
14 76 4.999999406282496E-1
14 100 9.999999337135064E-1
14 106 9.99999944662662E-1
14 111 9.999999190397952E-1
15 1 9.999999688850894E-1
15 6 9.999999720136398E-1
15 44 4.9999985774334516E-1
15 53 4.9999997242844796E-1
15 86 4.9999996839805716E-1
15 87 4.9999986063014046E-1
15 92 9.999999822110129E-1
15 96 9.9999994737357E-1
15 97 4.999999647950076E-1
15 121 4.9999996839736377E-1
16 21 9.999999554827723E-1
16 24 4.999999701432341E-1
16 27 4.9999997247949346E-1
16 34 9.999999734807244E-1
16 47 9.999999863445167E-1
16 60 4.999999747763965E-1
16 80 9.999999922366715E-1
16 101 9.999999603055054E-1
16 108 4.9999996578072026E-1
16 116 9.999999924580893E-1
17 5 9.999999994297357E-1
17 23 9.999999980073888E-1
17 41 9.999999923409931E-1
17 69 9.999999914471219E-1
17 86 9.999999882230182E-1
17 90 9.999999978158511E-1
17 113 4.999999854202476E-1
17 118 9.999999943556742E-1
17 121 4.9999999410927964E-1
17 129 4.9999999544121204E-1
18 2 4.9999998216004005E-1
18 29 9.999999992468153E-1
18 55 4.999999855013471E-1
18 74 9.999999603120108E-1
18 82 4.9999998376846083E-1
18 91 9.999999990806008E-1
18 110 4.999999874365491E-1
18 122 4.9999998179824146E-1
18 130 4.9999997873901536E-1
19 10 9.99999989563496E-1
19 21 4.999999885514262E-1
19 43 9.999999902819982E-1
19 47 4.999999789700596E-1
19 60 9.999999884582871E-1
19 72 9.999999824138601E-1
19 103 9.999999946098461E-1
19 126 9.999999888772674E-1
19 127 9.999999893895746E-1
19 128 9.999999865332945E-1
20 26 9.999998568874378E-1
20 33 9.999998099075167E-1
20 54 9.999999800386743E-1
20 59 9.999998073908763E-1
20 94 9.999999415352548E-1
20 99 9.999998429077649E-1
20 117 9.999998863178209E-1
20 125 4.9999988553282554E-1
21 16 9.999999554827723E-1
21 19 4.999999885514262E-1
21 28 4.9999998104004006E-1
21 47 9.999999896304121E-1
21 70 4.9999997944844554E-1
21 75 4.999999797554328E-1
21 108 9.999999616174347E-1
21 116 4.999999763194833E-1
21 126 4.9999998044955496E-1
22 7 9.99999972944457E-1
22 13 9.999999552501937E-1
22 31 4.9999997290043674E-1
22 35 4.999999842366683E-1
22 42 9.999999822175142E-1
22 62 4.999999832829461E-1
22 95 4.999998597568182E-1
22 102 9.999999803413823E-1
22 109 4.999999861431557E-1
22 120 4.9999998342847324E-1
23 1 4.9999998534286033E-1
23 5 9.999999977397293E-1
23 17 9.999999980073888E-1
23 41 9.99999997638458E-1
23 64 4.9999997252066575E-1
23 69 4.999999909227868E-1
23 86 9.999999957306404E-1
23 90 9.99999997873178E-1
23 113 4.999999864480276E-1
23 118 9.999999906295031E-1
23 121 9.999999957286633E-1
24 10 4.9999996991783613E-1
24 16 4.999999701432341E-1
24 27 9.999999913345429E-1
24 34 9.999999928850173E-1
24 43 4.9999996386819767E-1
24 60 4.999999787690168E-1
24 119 9.999999962007988E-1
24 127 4.999999755669303E-1
25 35 4.999999869580302E-1
25 65 9.999999993337041E-1
25 69 4.999999878563835E-1
25 81 9.999999958222955E-1
25 109 4.9999998812989943E-1
25 113 9.99999993515385E-1
25 120 4.9999998893511755E-1
25 123 9.999999988992225E-1
26 20 9.999998568874378E-1
26 33 4.999998809706986E-1
26 45 9.999999438784546E-1
26 49 9.999998244171207E-1
26 51 9.999999881516645E-1
26 54 9.999999427775763E-1
26 59 4.9999990587456444E-1
26 94 9.999999722842929E-1
26 98 4.9999994150565863E-1
26 99 4.999998317088652E-1
26 117 9.999999933850454E-1
26 125 4.999999061069608E-1
27 10 9.999999767923001E-1
27 16 4.9999997247949346E-1
27 24 9.999999913345429E-1
27 34 9.999999918672615E-1
27 43 4.9999998455520206E-1
27 60 9.999999861199479E-1
27 119 9.999999889437908E-1
27 127 9.999999832356776E-1
27 128 4.999999791006543E-1
28 21 4.9999998104004006E-1
28 46 9.999999844144329E-1
28 48 4.999999827647999E-1
28 50 9.999999954060422E-1
28 56 9.999999961058497E-1
28 70 9.999999975651112E-1
28 75 9.999999843030594E-1
28 77 9.999999972092778E-1
28 84 9.999999867154201E-1
28 88 4.9999998636352144E-1
29 2 4.999999840203728E-1
29 18 9.999999992468153E-1
29 55 4.999999858000215E-1
29 74 4.9999998057504497E-1
29 76 4.9999996328273416E-1
29 82 4.999999859835533E-1
29 83 9.999999668714463E-1
29 91 9.999999991563373E-1
29 110 4.999999891162411E-1
29 122 4.9999998158990433E-1
29 130 4.999999790022311E-1
30 2 9.999999969111928E-1
30 37 9.999999947429961E-1
30 55 9.999999985022684E-1
30 57 9.999999955530956E-1
30 78 9.999999990040821E-1
30 82 4.999999970804233E-1
30 85 4.9999999581648635E-1
30 110 9.999999943830271E-1
30 122 9.999999987909871E-1
30 124 9.999999956003784E-1
30 129 4.999999961000299E-1
31 13 9.999999995188538E-1
31 22 4.9999997290043674E-1
31 42 4.9999993338178755E-1
31 44 4.9999980580527614E-1
31 64 4.999999298716415E-1
31 95 9.999998988853637E-1
31 102 4.999999384280708E-1
31 104 9.999999220494669E-1
31 109 4.9999994161720956E-1
32 38 4.9999992373049934E-1
32 40 9.999999598057278E-1
32 45 4.999999530021991E-1
32 46 4.999999828544603E-1
32 48 9.999999720665755E-1
32 63 4.9999998495320536E-1
32 68 9.999999823782508E-1
32 88 9.999999832883958E-1
32 98 4.999999755138306E-1
32 105 4.999999787133927E-1
32 112 9.999999951117414E-1
33 20 9.999998099075167E-1
33 26 4.999998809706986E-1
33 45 4.999998307124105E-1
33 51 4.9999984712913964E-1
33 54 9.999998415876213E-1
33 94 4.9999987321039835E-1
33 98 4.9999979440849357E-1
33 117 4.99999862175916E-1
34 10 4.9999997722076417E-1
34 16 9.999999734807244E-1
34 24 9.999999928850173E-1
34 27 9.999999918672615E-1
34 43 4.999999717140563E-1
34 47 4.9999997048795447E-1
34 60 4.9999998706599474E-1
34 80 4.999999702726542E-1
34 116 4.9999996896862015E-1
34 119 9.999999806940141E-1
34 127 4.9999998323637573E-1
35 7 9.999999945854913E-1
35 22 4.999999842366683E-1
35 25 4.999999869580302E-1
35 42 9.999999936436343E-1
35 62 9.999999992877288E-1
35 65 4.999999878822015E-1
35 81 9.999999899643338E-1
35 102 9.99999998268201E-1
35 109 9.999999924799485E-1
35 120 9.99999999757942E-1
35 123 9.999999826330589E-1
36 14 9.9999990392847E-1
36 66 9.999999745780412E-1
36 71 9.999999970985429E-1
36 80 4.99999934756854E-1
36 93 9.999999799415112E-1
36 100 9.999999937411115E-1
36 101 9.999999459426233E-1
36 107 9.999999126771898E-1
37 30 9.999999947429961E-1
37 55 4.9999999528532674E-1
37 57 9.999999977050347E-1
37 69 9.999999936117892E-1
37 78 9.999999967630037E-1
37 85 9.99999999397277E-1
37 118 4.9999999223937014E-1
37 122 9.999999950456174E-1
37 124 9.99999992660823E-1
37 129 9.9999999807108E-1
38 32 4.9999992373049934E-1
38 39 9.999999287156828E-1
38 40 9.999999613474116E-1
38 48 4.99999952605726E-1
38 68 9.999998963450885E-1
38 89 4.999999193560889E-1
38 108 9.999999460652866E-1
38 115 9.999999633005577E-1
38 116 4.999999272771628E-1
39 38 9.999999287156828E-1
39 71 4.9999991434523605E-1
39 80 4.999999160618489E-1
39 87 4.999998700189925E-1
39 89 9.999999802951706E-1
39 93 4.99999946125214E-1
39 101 4.999999362625917E-1
39 108 4.999999242384461E-1
39 115 9.999999457058534E-1
40 32 9.999999598057278E-1
40 38 9.999999613474116E-1
40 46 4.999999500998156E-1
40 48 9.99999966107512E-1
40 68 9.999999830741358E-1
40 88 4.9999996783987816E-1
40 108 4.999999618132486E-1
40 112 4.999999678541704E-1
41 1 4.9999998931174844E-1
41 5 9.999999908358268E-1
41 17 9.999999923409931E-1
41 23 9.99999997638458E-1
41 64 4.999999825747739E-1
41 86 9.999999966018781E-1
41 90 9.999999913436443E-1
41 96 4.999999557985913E-1
41 104 4.9999996034299177E-1
41 113 9.999999809531112E-1
41 118 4.999999894777925E-1
41 121 9.999999966041169E-1
42 7 9.999999990293501E-1
42 13 4.9999994102399964E-1
42 22 9.999999822175142E-1
42 31 4.9999993338178755E-1
42 35 9.999999936436343E-1
42 62 9.99999995523376E-1
42 81 4.999999838708045E-1
42 102 9.999999944187958E-1
42 109 4.9999999034094406E-1
42 120 9.999999912712815E-1
43 10 9.99999999402701E-1
43 19 9.999999902819982E-1
43 24 4.9999996386819767E-1
43 27 4.9999998455520206E-1
43 34 4.999999717140563E-1
43 60 9.999999933046668E-1
43 72 9.99999994405248E-1
43 103 9.99999996703101E-1
43 119 4.999999637006908E-1
43 126 4.9999998758957714E-1
43 127 9.999999968757944E-1
43 128 9.999999987697298E-1
44 1 4.9999983683872445E-1
44 15 4.9999985774334516E-1
44 31 4.9999980580527614E-1
44 64 4.9999985165358046E-1
44 92 4.9999986631799437E-1
44 95 9.999998822126241E-1
44 96 4.999999190142195E-1
44 104 4.9999986955829906E-1
45 11 4.999999308985719E-1
45 26 9.999999438784546E-1
45 32 4.999999530021991E-1
45 33 4.999998307124105E-1
45 46 4.999999579105921E-1
45 51 9.999999802927618E-1
45 63 4.9999997552978215E-1
45 98 9.999999888987199E-1
45 105 4.9999997615598524E-1
45 112 4.9999996602301844E-1
45 117 4.9999995266637187E-1
46 28 9.999999844144329E-1
46 32 4.999999828544603E-1
46 40 4.999999500998156E-1
46 45 4.999999579105921E-1
46 48 4.9999998850935856E-1
46 50 4.9999998859166056E-1
46 56 9.999999928876916E-1
46 63 9.999999951464857E-1
46 68 4.999999528109907E-1
46 70 9.999999894134186E-1
46 77 9.999999946347394E-1
46 88 9.999999958781083E-1
46 98 4.999999827427652E-1
46 105 9.999999941021067E-1
46 112 9.999999845997125E-1
47 16 9.999999863445167E-1
47 19 4.999999789700596E-1
47 21 9.999999896304121E-1
47 34 4.9999997048795447E-1
47 60 4.9999997518533246E-1
47 80 9.99999978936904E-1
47 108 9.999999690095136E-1
47 115 4.9999996306981803E-1
47 116 9.999999862654785E-1
48 28 4.999999827647999E-1
48 32 9.999999720665755E-1
48 38 4.99999952605726E-1
48 40 9.99999966107512E-1
48 46 4.9999998850935856E-1
48 68 4.999999737190637E-1
48 70 9.999999814122652E-1
48 77 4.999999883275859E-1
48 88 9.999999889630331E-1
48 108 4.999999761178558E-1
48 112 9.999999736309496E-1
49 26 9.999998244171207E-1
49 51 4.9999990039677744E-1
49 54 4.999998892478765E-1
49 59 9.999999838049065E-1
49 94 9.999998763752429E-1
49 99 9.999998638350456E-1
49 117 9.999998780407878E-1
49 125 9.99999994098388E-1
50 4 4.999999708450652E-1
50 11 4.999999293288867E-1
50 28 9.999999954060422E-1
50 46 4.9999998859166056E-1
50 56 9.999999955480425E-1
50 61 9.999999768640433E-1
50 70 9.999999870731554E-1
50 75 9.999999924246952E-1
50 77 9.999999903527769E-1
50 84 9.999999961443744E-1
51 11 4.999999292671473E-1
51 26 9.999999881516645E-1
51 33 4.9999984712913964E-1
51 45 9.999999802927618E-1
51 49 4.9999990039677744E-1
51 54 9.99999878991602E-1
51 63 4.9999993573038254E-1
51 94 9.999999282612485E-1
51 98 4.9999997009380515E-1
51 105 4.999999382775444E-1
51 117 9.999999713011499E-1
51 125 4.9999988593723E-1
52 8 9.999999397163816E-1
52 12 4.999999458541726E-1
52 58 4.9999995224953514E-1
52 66 4.999999394432758E-1
52 79 9.999999549836005E-1
52 87 9.999999081808465E-1
52 92 9.9999991921606E-1
52 97 4.9999997165521226E-1
52 114 9.999999533944385E-1
53 6 9.999999948039637E-1
53 12 9.999999895171459E-1
53 15 4.9999997242844796E-1
53 58 9.999999797063237E-1
53 79 9.999999818457527E-1
53 90 4.999999881381504E-1
53 92 4.999999443995832E-1
53 97 9.999999877578649E-1
53 114 4.999999819803151E-1
53 118 4.99999990098849E-1
53 124 4.9999998583883803E-1
54 20 9.999999800386743E-1
54 26 9.999999427775763E-1
54 33 9.999998415876213E-1
54 49 4.999998892478765E-1
54 51 9.99999878991602E-1
54 59 9.999998264684095E-1
54 94 9.999999829058194E-1
54 99 4.999998969933042E-1
54 117 9.999999562795153E-1
54 125 9.999998030141747E-1
55 2 9.999999967584304E-1
55 18 4.999999855013471E-1
55 29 4.999999858000215E-1
55 30 9.999999985022684E-1
55 37 4.9999999528532674E-1
55 57 9.999999950866463E-1
55 78 9.999999983542138E-1
55 82 9.999999948971875E-1
55 91 4.999999809828601E-1
55 110 9.999999966377893E-1
55 122 9.999999991658802E-1
56 28 9.999999961058497E-1
56 46 9.999999928876916E-1
56 50 9.999999955480425E-1
56 63 9.999999818936752E-1
56 70 9.999999936331896E-1
56 75 4.9999998844248905E-1
56 77 9.999999978187093E-1
56 84 9.999999834064079E-1
56 98 4.999999718982433E-1
56 105 9.999999855997755E-1
57 2 4.99999993014297E-1
57 30 9.999999955530956E-1
57 37 9.999999977050347E-1
57 55 9.999999950866463E-1
57 69 4.9999999242278126E-1
57 78 9.999999987167177E-1
57 82 4.9999999061848316E-1
57 85 9.999999948680558E-1
57 110 4.9999999187956523E-1
57 122 9.999999982523488E-1
57 124 4.999999936345092E-1
57 129 9.999999918480683E-1
58 8 9.999999831534642E-1
58 12 9.9999999787714E-1
58 52 4.9999995224953514E-1
58 53 9.999999797063237E-1
58 79 9.999999872903033E-1
58 82 4.999999884667948E-1
58 83 9.999999841043938E-1
58 97 9.999999905450363E-1
58 107 4.9999995739562586E-1
58 114 9.999999903663002E-1
59 20 9.999998073908763E-1
59 26 4.9999990587456444E-1
59 49 9.999999838049065E-1
59 54 9.999998264684095E-1
59 94 9.999998976719685E-1
59 99 9.999999409551658E-1
59 117 9.999998744486641E-1
59 125 9.999999972881838E-1
60 10 9.999999964886256E-1
60 16 4.999999747763965E-1
60 19 9.999999884582871E-1
60 24 4.999999787690168E-1
60 27 9.999999861199479E-1
60 34 4.9999998706599474E-1
60 43 9.999999933046668E-1
60 47 4.9999997518533246E-1
60 72 9.999999756103176E-1
60 103 9.999999852975545E-1
60 119 4.99999975363632E-1
60 127 9.999999992792912E-1
60 128 9.9999998634683E-1
61 4 9.999999765728873E-1
61 9 9.999999956612373E-1
61 11 4.999999389285698E-1
61 50 9.999999768640433E-1
61 73 9.999999941637071E-1
61 75 9.999999930002665E-1
61 84 9.999999916775699E-1
61 103 4.9999998585807104E-1
61 126 9.999999929518307E-1
62 7 9.999999972925402E-1
62 22 4.999999832829461E-1
62 35 9.999999992877288E-1
62 42 9.99999995523376E-1
62 81 4.999999927630349E-1
62 102 9.999999964359468E-1
62 109 9.99999987283324E-1
62 120 9.999999982737974E-1
62 123 4.999999886641012E-1
63 32 4.9999998495320536E-1
63 45 4.9999997552978215E-1
63 46 9.999999951464857E-1
63 51 4.9999993573038254E-1
63 56 9.999999818936752E-1
63 68 4.9999995334770275E-1
63 70 4.999999852052689E-1
63 77 9.999999805273054E-1
63 88 9.999999904650761E-1
63 98 9.99999986461263E-1
63 105 9.999999989192511E-1
63 112 9.999999892699847E-1
64 1 9.99999975174965E-1
64 13 4.999999344949333E-1
64 23 4.9999997252066575E-1
64 31 4.999999298716415E-1
64 41 4.999999825747739E-1
64 44 4.9999985165358046E-1
64 86 4.999999802609087E-1
64 95 4.999998989531646E-1
64 96 9.999999724218247E-1
64 104 9.999999896163916E-1
64 113 4.99999978896988E-1
64 121 4.99999980269634E-1
65 25 9.999999993337041E-1
65 35 4.999999878822015E-1
65 69 4.999999855779714E-1
65 81 9.999999969197279E-1
65 109 9.999999816276778E-1
65 113 9.999999966925662E-1
65 120 4.9999998996884776E-1
65 123 9.999999993609197E-1
66 8 4.999999529775061E-1
66 36 9.999999745780412E-1
66 52 4.999999394432758E-1
66 71 9.999999860208126E-1
66 87 4.99999878561854E-1
66 89 4.999999058158453E-1
66 93 9.999999248428344E-1
66 100 9.999999458009101E-1
66 107 9.999999685385117E-1
66 114 4.999999341790029E-1
67 3 9.999999690589423E-1
67 14 9.999999090016658E-1
67 74 9.999999710644981E-1
67 76 9.999999903941721E-1
67 91 4.9999994172826784E-1
67 106 9.999999953910077E-1
67 111 9.99999999171057E-1
67 130 9.999999733563792E-1
68 32 9.999999823782508E-1
68 38 9.999998963450885E-1
68 40 9.999999830741358E-1
68 46 4.999999528109907E-1
68 48 4.999999737190637E-1
68 63 4.9999995334770275E-1
68 88 4.9999997007448244E-1
68 112 4.999999795318963E-1
69 5 4.999999943008495E-1
69 17 9.999999914471219E-1
69 23 4.999999909227868E-1
69 25 4.999999878563835E-1
69 37 9.999999936117892E-1
69 57 4.9999999242278126E-1
69 65 4.999999855779714E-1
69 85 9.999999968152622E-1
69 118 4.999999919506067E-1
69 124 4.999999919288357E-1
69 129 9.99999995874627E-1
70 21 4.9999997944844554E-1
70 28 9.999999975651112E-1
70 46 9.999999894134186E-1
70 48 9.999999814122652E-1
70 50 9.999999870731554E-1
70 56 9.999999936331896E-1
70 63 4.999999852052689E-1
70 77 9.999999985601716E-1
70 84 4.999999864562647E-1
70 88 9.999999839849124E-1
70 105 4.9999998525397144E-1
71 14 9.999998740547308E-1
71 36 9.999999970985429E-1
71 39 4.9999991434523605E-1
71 66 9.999999860208126E-1
71 80 4.9999992230946333E-1
71 89 4.999999195260692E-1
71 93 9.999999749945151E-1
71 100 9.999999823728233E-1
71 101 9.999999311466311E-1
71 107 9.999999238478123E-1
72 9 4.9999998648737765E-1
72 10 9.999999902108874E-1
72 19 9.999999824138601E-1
72 43 9.99999994405248E-1
72 60 9.999999756103176E-1
72 73 4.9999998071872837E-1
72 103 9.9999999648973E-1
72 126 9.999999821457036E-1
72 127 9.999999829295259E-1
72 128 9.999999982979347E-1
73 4 9.999999917845125E-1
73 9 9.999999989677424E-1
73 11 4.9999995567198874E-1
73 61 9.999999941637071E-1
73 72 4.9999998071872837E-1
73 75 9.99999975309327E-1
73 84 9.999999757468083E-1
73 103 4.999999779845751E-1
73 126 4.999999886758953E-1
74 3 4.999999511321111E-1
74 18 9.999999603120108E-1
74 29 4.9999998057504497E-1
74 67 9.999999710644981E-1
74 76 9.999999937228456E-1
74 91 9.99999970632897E-1
74 106 9.999999578187296E-1
74 111 9.999999604985796E-1
74 130 9.999999999070975E-1
75 4 4.9999997618682157E-1
75 9 9.999999776522404E-1
75 21 4.999999797554328E-1
75 28 9.999999843030594E-1
75 50 9.999999924246952E-1
75 56 4.9999998844248905E-1
75 61 9.999999930002665E-1
75 73 9.99999975309327E-1
75 84 9.999999988684135E-1
75 126 9.999999924591892E-1
76 3 9.999999450853015E-1
76 14 4.999999406282496E-1
76 29 4.9999996328273416E-1
76 67 9.999999903941721E-1
76 74 9.999999937228456E-1
76 91 4.999999694851256E-1
76 106 9.999999840850243E-1
76 111 9.999999842915938E-1
76 130 9.999999943578758E-1
77 28 9.999999972092778E-1
77 46 9.999999946347394E-1
77 48 4.999999883275859E-1
77 50 9.999999903527769E-1
77 56 9.999999978187093E-1
77 63 9.999999805273054E-1
77 70 9.999999985601716E-1
77 88 9.999999870874354E-1
77 105 9.999999815486298E-1
77 112 4.999999818779566E-1
78 2 9.999999931711769E-1
78 30 9.999999990040821E-1
78 37 9.999999967630037E-1
78 55 9.999999983542138E-1
78 57 9.999999987167177E-1
78 82 4.999999948046208E-1
78 85 9.999999935448431E-1
78 110 4.999999955331014E-1
78 122 9.999999998033442E-1
78 124 4.9999999610663787E-1
78 129 9.999999923210311E-1
79 6 9.999999714590262E-1
79 8 9.999999782899999E-1
79 12 9.999999856956531E-1
79 52 9.999999549836005E-1
79 53 9.999999818457527E-1
79 58 9.999999872903033E-1
79 87 4.9999986922001477E-1
79 92 4.999999507549375E-1
79 97 9.999999993076069E-1
79 107 4.9999994881517656E-1
79 114 9.99999994569828E-1
80 16 9.999999922366715E-1
80 34 4.999999702726542E-1
80 36 4.99999934756854E-1
80 39 4.999999160618489E-1
80 47 9.99999978936904E-1
80 71 4.9999992230946333E-1
80 93 9.999999408582374E-1
80 100 4.999999503717893E-1
80 101 9.999999824902563E-1
80 108 9.999999497686131E-1
80 115 9.99999952661384E-1
80 116 9.999999990214322E-1
81 7 4.9999998520171307E-1
81 25 9.999999958222955E-1
81 35 9.999999899643338E-1
81 42 4.999999838708045E-1
81 62 4.999999927630349E-1
81 65 9.999999969197279E-1
81 102 9.999999859974363E-1
81 109 9.999999910850976E-1
81 113 9.999999910567634E-1
81 120 9.999999925659729E-1
81 123 9.999999989542963E-1
82 2 9.99999999545391E-1
82 12 4.9999999059843014E-1
82 18 4.9999998376846083E-1
82 29 4.999999859835533E-1
82 30 4.999999970804233E-1
82 55 9.999999948971875E-1
82 57 4.9999999061848316E-1
82 58 4.999999884667948E-1
82 78 4.999999948046208E-1
82 83 4.999999866288763E-1
82 91 4.999999807003685E-1
82 110 9.999999994301996E-1
82 122 4.9999999540727824E-1
82 124 4.9999999420397406E-1
83 2 4.99999982932757E-1
83 8 9.999999814905749E-1
83 12 4.999999869377996E-1
83 29 9.999999668714463E-1
83 58 9.999999841043938E-1
83 82 4.999999866288763E-1
83 91 4.999999799106321E-1
83 97 4.9999997667296275E-1
83 107 4.9999997556508813E-1
83 110 4.9999998580455707E-1
83 114 9.999999708078608E-1
84 4 4.9999997922084805E-1
84 9 9.999999759678219E-1
84 11 4.999999326385631E-1
84 28 9.999999867154201E-1
84 50 9.999999961443744E-1
84 56 9.999999834064079E-1
84 61 9.999999916775699E-1
84 70 4.999999864562647E-1
84 73 9.999999757468083E-1
84 75 9.999999988684135E-1
84 126 9.999999862224771E-1
85 30 4.9999999581648635E-1
85 37 9.99999999397277E-1
85 57 9.999999948680558E-1
85 69 9.999999968152622E-1
85 78 9.999999935448431E-1
85 118 4.999999935162776E-1
85 122 9.99999991139801E-1
85 124 9.999999923474232E-1
85 129 9.999999991385763E-1
86 1 9.999999885922813E-1
86 5 9.999999893807354E-1
86 6 4.99999988768719E-1
86 15 4.9999996839805716E-1
86 17 9.999999882230182E-1
86 23 9.999999957306404E-1
86 41 9.999999966018781E-1
86 64 4.999999802609087E-1
86 90 9.999999926590282E-1
86 96 4.999999620318122E-1
86 118 4.9999999076833823E-1
86 121 9.99999999999998E-1
87 15 4.9999986063014046E-1
87 39 4.999998700189925E-1
87 52 9.999999081808465E-1
87 66 4.99999878561854E-1
87 79 4.9999986922001477E-1
87 89 9.999998632975621E-1
87 92 4.999999151769388E-1
87 114 4.9999986569828914E-1
88 28 4.9999998636352144E-1
88 32 9.999999832883958E-1
88 40 4.9999996783987816E-1
88 46 9.999999958781083E-1
88 48 9.999999889630331E-1
88 63 9.999999904650761E-1
88 68 4.9999997007448244E-1
88 70 9.999999839849124E-1
88 77 9.999999870874354E-1
88 98 4.9999997915213595E-1
88 105 9.999999852099452E-1
88 112 9.999999932025735E-1
89 38 4.999999193560889E-1
89 39 9.999999802951706E-1
89 66 4.999999058158453E-1
89 71 4.999999195260692E-1
89 87 9.999998632975621E-1
89 93 4.999999316313277E-1
89 101 4.99999906081961E-1
89 115 4.9999993314428876E-1
90 5 9.999999993256606E-1
90 6 4.9999998639134496E-1
90 17 9.999999978158511E-1
90 23 9.99999997873178E-1
90 41 9.999999913436443E-1
90 53 4.999999881381504E-1
90 86 9.999999926590282E-1
90 118 9.999999971882639E-1
90 121 9.999999926530561E-1
90 124 4.9999999356141145E-1
91 18 9.999999990806008E-1
91 29 9.999999991563373E-1
91 55 4.999999809828601E-1
91 67 4.9999994172826784E-1
91 74 9.99999970632897E-1
91 76 4.999999694851256E-1
91 82 4.999999807003685E-1
91 83 4.999999799106321E-1
91 106 4.999999312493808E-1
91 110 4.9999998443551164E-1
91 111 4.99999931570074E-1
91 130 9.999999680370059E-1
92 1 4.9999995245026624E-1
92 6 4.9999996134955044E-1
92 15 9.999999822110129E-1
92 44 4.9999986631799437E-1
92 52 9.9999991921606E-1
92 53 4.999999443995832E-1
92 79 4.999999507549375E-1
92 87 4.999999151769388E-1
92 96 4.999999494571497E-1
92 97 4.999999479045765E-1
93 36 9.999999799415112E-1
93 39 4.99999946125214E-1
93 66 9.999999248428344E-1
93 71 9.999999749945151E-1
93 80 9.999999408582374E-1
93 89 4.999999316313277E-1
93 100 9.999999792099362E-1
93 101 9.999999875119385E-1
93 115 9.999999141814815E-1
93 116 4.99999963358963E-1
94 20 9.999999415352548E-1
94 26 9.999999722842929E-1
94 33 4.9999987321039835E-1
94 49 9.999998763752429E-1
94 51 9.999999282612485E-1
94 54 9.999999829058194E-1
94 59 9.999998976719685E-1
94 99 4.999999107724638E-1
94 117 9.999999897385733E-1
94 125 9.999998864987047E-1
95 1 4.9999984051280394E-1
95 13 9.999998886781823E-1
95 22 4.999998597568182E-1
95 31 9.999998988853637E-1
95 44 9.999998822126241E-1
95 64 4.999998989531646E-1
95 96 4.9999991654618064E-1
95 104 4.999999347625833E-1
96 1 9.999999693926012E-1
96 6 4.9999994977795714E-1
96 15 9.9999994737357E-1
96 41 4.999999557985913E-1
96 44 4.999999190142195E-1
96 64 9.999999724218247E-1
96 86 4.999999620318122E-1
96 92 4.999999494571497E-1
96 95 4.9999991654618064E-1
96 104 9.999999610767007E-1
96 121 4.999999620408167E-1
97 6 9.999999769848777E-1
97 8 9.999999754133797E-1
97 12 9.999999906763196E-1
97 15 4.999999647950076E-1
97 52 4.9999997165521226E-1
97 53 9.999999877578649E-1
97 58 9.999999905450363E-1
97 79 9.999999993076069E-1
97 83 4.9999997667296275E-1
97 92 4.999999479045765E-1
97 114 9.999999927111595E-1
98 26 4.9999994150565863E-1
98 32 4.999999755138306E-1
98 33 4.9999979440849357E-1
98 45 9.999999888987199E-1
98 46 4.999999827427652E-1
98 51 4.9999997009380515E-1
98 56 4.999999718982433E-1
98 63 9.99999986461263E-1
98 88 4.9999997915213595E-1
98 105 9.999999861258669E-1
98 112 9.999999728881448E-1
99 20 9.999998429077649E-1
99 26 4.999998317088652E-1
99 49 9.999998638350456E-1
99 54 4.999998969933042E-1
99 59 9.999999409551658E-1
99 94 4.999999107724638E-1
99 117 4.9999987464852413E-1
99 125 9.999999146200278E-1
100 3 4.999999324553119E-1
100 14 9.999999337135064E-1
100 36 9.999999937411115E-1
100 66 9.999999458009101E-1
100 71 9.999999823728233E-1
100 80 4.999999503717893E-1
100 93 9.999999792099362E-1
100 101 9.999999607456751E-1
100 107 4.999999405419758E-1
101 16 9.999999603055054E-1
101 36 9.999999459426233E-1
101 39 4.999999362625917E-1
101 71 9.999999311466311E-1
101 80 9.999999824902563E-1
101 89 4.99999906081961E-1
101 93 9.999999875119385E-1
101 100 9.999999607456751E-1
101 115 9.999999419479679E-1
101 116 9.999999740475689E-1
102 7 9.99999992767686E-1
102 13 4.9999994588162294E-1
102 22 9.999999803413823E-1
102 31 4.999999384280708E-1
102 35 9.99999998268201E-1
102 42 9.999999944187958E-1
102 62 9.999999964359468E-1
102 81 9.999999859974363E-1
102 109 9.999999958184256E-1
102 120 9.999999982204604E-1
102 123 4.999999886686896E-1
103 9 4.999999840796403E-1
103 10 9.999999939843819E-1
103 19 9.999999946098461E-1
103 43 9.99999996703101E-1
103 60 9.999999852975545E-1
103 61 4.9999998585807104E-1
103 72 9.9999999648973E-1
103 73 4.999999779845751E-1
103 126 9.999999898550609E-1
103 127 9.999999898082059E-1
103 128 9.999999972577055E-1
104 1 4.9999996761512594E-1
104 13 9.999999276767512E-1
104 31 9.999999220494669E-1
104 41 4.9999996034299177E-1
104 44 4.9999986955829906E-1
104 64 9.999999896163916E-1
104 95 4.999999347625833E-1
104 96 9.999999610767007E-1
104 109 4.9999996672129654E-1
104 113 4.999999656120838E-1
105 32 4.999999787133927E-1
105 45 4.9999997615598524E-1
105 46 9.999999941021067E-1
105 51 4.999999382775444E-1
105 56 9.999999855997755E-1
105 63 9.999999989192511E-1
105 70 4.9999998525397144E-1
105 77 9.999999815486298E-1
105 88 9.999999852099452E-1
105 98 9.999999861258669E-1
105 112 9.99999981379973E-1
106 3 9.999999872547889E-1
106 14 9.99999944662662E-1
106 67 9.999999953910077E-1
106 74 9.999999578187296E-1
106 76 9.999999840850243E-1
106 91 4.999999312493808E-1
106 111 9.99999996409546E-1
106 130 9.999999596334311E-1
107 8 9.999999694046737E-1
107 36 9.999999126771898E-1
107 58 4.9999995739562586E-1
107 66 9.999999685385117E-1
107 71 9.999999238478123E-1
107 79 4.9999994881517656E-1
107 83 4.9999997556508813E-1
107 100 4.999999405419758E-1
107 114 4.9999996953337594E-1
108 16 4.9999996578072026E-1
108 21 9.999999616174347E-1
108 38 9.999999460652866E-1
108 39 4.999999242384461E-1
108 40 4.999999618132486E-1
108 47 9.999999690095136E-1
108 48 4.999999761178558E-1
108 80 9.999999497686131E-1
108 115 9.999999734763242E-1
108 116 9.999999611815586E-1
109 7 4.999999889289108E-1
109 13 4.999999487005439E-1
109 22 4.999999861431557E-1
109 25 4.9999998812989943E-1
109 31 4.9999994161720956E-1
109 35 9.999999924799485E-1
109 42 4.9999999034094406E-1
109 62 9.99999987283324E-1
109 65 9.999999816276778E-1
109 81 9.999999910850976E-1
109 102 9.999999958184256E-1
109 104 4.9999996672129654E-1
109 113 9.999999810168916E-1
109 120 9.999999944209982E-1
109 123 9.999999852797642E-1
110 2 9.999999990134719E-1
110 12 4.999999871955562E-1
110 18 4.999999874365491E-1
110 29 4.999999891162411E-1
110 30 9.999999943830271E-1
110 55 9.999999966377893E-1
110 57 4.9999999187956523E-1
110 78 4.999999955331014E-1
110 82 9.999999994301996E-1
110 83 4.9999998580455707E-1
110 91 4.9999998443551164E-1
110 122 9.999999926652458E-1
110 124 4.999999928292256E-1
111 3 9.999999754530468E-1
111 14 9.999999190397952E-1
111 67 9.99999999171057E-1
111 74 9.999999604985796E-1
111 76 9.999999842915938E-1
111 91 4.99999931570074E-1
111 106 9.99999996409546E-1
111 130 9.999999631502777E-1
112 32 9.999999951117414E-1
112 40 4.999999678541704E-1
112 45 4.9999996602301844E-1
112 46 9.999999845997125E-1
112 48 9.999999736309496E-1
112 63 9.999999892699847E-1
112 68 4.999999795318963E-1
112 77 4.999999818779566E-1
112 88 9.999999932025735E-1
112 98 9.999999728881448E-1
112 105 9.99999981379973E-1
113 17 4.999999854202476E-1
113 23 4.999999864480276E-1
113 25 9.99999993515385E-1
113 41 9.999999809531112E-1
113 64 4.99999978896988E-1
113 65 9.999999966925662E-1
113 81 9.999999910567634E-1
113 104 4.999999656120838E-1
113 109 9.999999810168916E-1
113 123 9.999999941354452E-1
114 8 9.99999994570864E-1
114 12 9.999999827693627E-1
114 52 9.999999533944385E-1
114 53 4.999999819803151E-1
114 58 9.999999903663002E-1
114 66 4.999999341790029E-1
114 79 9.99999994569828E-1
114 83 9.999999708078608E-1
114 87 4.9999986569828914E-1
114 97 9.999999927111595E-1
114 107 4.9999996953337594E-1
115 38 9.999999633005577E-1
115 39 9.999999457058534E-1
115 47 4.9999996306981803E-1
115 80 9.99999952661384E-1
115 89 4.9999993314428876E-1
115 93 9.999999141814815E-1
115 101 9.999999419479679E-1
115 108 9.999999734763242E-1
115 116 9.999999560814177E-1
116 16 9.999999924580893E-1
116 21 4.999999763194833E-1
116 34 4.9999996896862015E-1
116 38 4.999999272771628E-1
116 47 9.999999862654785E-1
116 80 9.999999990214322E-1
116 93 4.99999963358963E-1
116 101 9.999999740475689E-1
116 108 9.999999611815586E-1
116 115 9.999999560814177E-1
117 20 9.999998863178209E-1
117 26 9.999999933850454E-1
117 33 4.99999862175916E-1
117 45 4.9999995266637187E-1
117 49 9.999998780407878E-1
117 51 9.999999713011499E-1
117 54 9.999999562795153E-1
117 59 9.999998744486641E-1
117 94 9.999999897385733E-1
117 99 4.9999987464852413E-1
117 125 4.999999363688342E-1
118 5 9.99999997084945E-1
118 17 9.999999943556742E-1
118 23 9.999999906295031E-1
118 37 4.9999999223937014E-1
118 41 4.999999894777925E-1
118 53 4.99999990098849E-1
118 69 4.999999919506067E-1
118 85 4.999999935162776E-1
118 86 4.9999999076833823E-1
118 90 9.999999971882639E-1
118 121 4.99999990763082E-1
118 124 9.999999961385034E-1
118 129 9.999999928529475E-1
119 10 4.9999996921237605E-1
119 24 9.999999962007988E-1
119 27 9.999999889437908E-1
119 34 9.999999806940141E-1
119 43 4.999999637006908E-1
119 60 4.99999975363632E-1
119 127 4.999999734704721E-1
119 128 4.9999995712151585E-1
120 7 9.999999920751073E-1
120 22 4.9999998342847324E-1
120 25 4.9999998893511755E-1
120 35 9.99999999757942E-1
120 42 9.999999912712815E-1
120 62 9.999999982737974E-1
120 65 4.9999998996884776E-1
120 81 9.999999925659729E-1
120 102 9.999999982204604E-1
120 109 9.999999944209982E-1
120 123 9.999999860252798E-1
121 1 9.999999885973204E-1
121 5 9.999999893748449E-1
121 6 4.9999998876415436E-1
121 15 4.9999996839736377E-1
121 17 4.9999999410927964E-1
121 23 9.999999957286633E-1
121 41 9.999999966041169E-1
121 64 4.99999980269634E-1
121 86 9.99999999999998E-1
121 90 9.999999926530561E-1
121 96 4.999999620408167E-1
121 118 4.99999990763082E-1
122 2 9.999999939062583E-1
122 18 4.9999998179824146E-1
122 29 4.9999998158990433E-1
122 30 9.999999987909871E-1
122 37 9.999999950456174E-1
122 55 9.999999991658802E-1
122 57 9.999999982523488E-1
122 78 9.999999998033442E-1
122 82 4.9999999540727824E-1
122 85 9.99999991139801E-1
122 110 9.999999926652458E-1
122 124 4.999999952268423E-1
123 25 9.999999988992225E-1
123 35 9.999999826330589E-1
123 62 4.999999886641012E-1
123 65 9.999999993609197E-1
123 81 9.999999989542963E-1
123 102 4.999999886686896E-1
123 109 9.999999852797642E-1
123 113 9.999999941354452E-1
123 120 9.999999860252798E-1
124 2 9.999999920359851E-1
124 30 9.999999956003784E-1
124 37 9.99999992660823E-1
124 53 4.9999998583883803E-1
124 57 4.999999936345092E-1
124 69 4.999999919288357E-1
124 78 4.9999999610663787E-1
124 82 4.9999999420397406E-1
124 85 9.999999923474232E-1
124 90 4.9999999356141145E-1
124 110 4.999999928292256E-1
124 118 9.999999961385034E-1
124 122 4.999999952268423E-1
124 129 9.999999958815707E-1
125 20 4.9999988553282554E-1
125 26 4.999999061069608E-1
125 49 9.99999994098388E-1
125 51 4.9999988593723E-1
125 54 9.999998030141747E-1
125 59 9.999999972881838E-1
125 94 9.999998864987047E-1
125 99 9.999999146200278E-1
125 117 4.999999363688342E-1
126 4 4.9999997232707627E-1
126 9 9.999999839637714E-1
126 19 9.999999888772674E-1
126 21 4.9999998044955496E-1
126 43 4.9999998758957714E-1
126 61 9.999999929518307E-1
126 72 9.999999821457036E-1
126 73 4.999999886758953E-1
126 75 9.999999924591892E-1
126 84 9.999999862224771E-1
126 103 9.999999898550609E-1
126 128 9.999999776776434E-1
127 10 9.999999989392129E-1
127 19 9.999999893895746E-1
127 24 4.999999755669303E-1
127 27 9.999999832356776E-1
127 34 4.9999998323637573E-1
127 43 9.999999968757944E-1
127 60 9.999999992792912E-1
127 72 9.999999829295259E-1
127 103 9.999999898082059E-1
127 119 4.999999734704721E-1
127 128 9.999999917802377E-1
128 10 9.999999965919174E-1
128 19 9.999999865332945E-1
128 27 4.999999791006543E-1
128 43 9.999999987697298E-1
128 60 9.9999998634683E-1
128 72 9.999999982979347E-1
128 103 9.999999972577055E-1
128 119 4.9999995712151585E-1
128 126 9.999999776776434E-1
128 127 9.999999917802377E-1
129 5 4.999999955095298E-1
129 17 4.9999999544121204E-1
129 30 4.999999961000299E-1
129 37 9.9999999807108E-1
129 57 9.999999918480683E-1
129 69 9.99999995874627E-1
129 78 9.999999923210311E-1
129 85 9.999999991385763E-1
129 118 9.999999928529475E-1
129 124 9.999999958815707E-1
130 3 4.9999995215690823E-1
130 18 4.9999997873901536E-1
130 29 4.999999790022311E-1
130 67 9.999999733563792E-1
130 74 9.999999999070975E-1
130 76 9.999999943578758E-1
130 91 9.999999680370059E-1
130 106 9.999999596334311E-1
130 111 9.999999631502777E-1
